%nprocshared=4
%mem=2GB
#HF/cc-pVTZ nosymm scf=tight opt=ModRedundant

Mol

0 1
O	 -2.071633	 -1.227563	 -0.223463
C	 -1.652164	 -0.152425	 0.058082
C	 -0.327811	 0.006324	 0.778296
C	 -2.402515	 1.108629	 -0.298924
C	 -0.318683	 1.271837	 1.644216
H	 -0.129563	 -0.863312	 1.395998
H	 0.447915	 0.074457	 0.026335
C	 1.006062	 1.477494	 2.372904
H	 -1.123773	 1.224659	 2.373117
H	 -0.523957	 2.127662	 1.010345
C	 1.024194	 2.741596	 3.225477
H	 1.209446	 0.614835	 3.001377
H	 1.810314	 1.521503	 1.644357
H	 0.252276	 2.711788	 3.987244
H	 0.855034	 3.624590	 2.618785
H	 1.977821	 2.861668	 3.726056
H	 -3.240910	 0.874416	 -0.936711
H	 -1.747554	 1.818823	 -0.790984
H	 -2.760419	 1.579708	 0.610998

5 3 2 4 F
