%nprocshared=4
%mem=2GB
#HF/cc-pVTZ nosymm scf=tight opt=ModRedundant

Mol

0 1
O	 -2.071633	 -1.227563	 -0.223463
C	 -1.652164	 -0.152425	 0.058082
C	 -0.327811	 0.006324	 0.778296
C	 -2.402515	 1.108629	 -0.298924
C	 0.843231	 -0.001575	 -0.211665
H	 -0.319484	 0.928173	 1.350354
H	 -0.227804	 -0.823091	 1.466705
C	 1.360692	 -1.407579	 -0.500834
H	 1.657014	 0.605832	 0.176288
H	 0.520116	 0.466215	 -1.135317
C	 2.517183	 -1.421418	 -1.494564
H	 1.677119	 -1.873394	 0.428366
H	 0.546499	 -2.014738	 -0.885526
H	 3.361155	 -0.850592	 -1.121866
H	 2.221128	 -0.990297	 -2.444751
H	 2.859199	 -2.432492	 -1.682063
H	 -3.240910	 0.874416	 -0.936711
H	 -1.747554	 1.818823	 -0.790984
H	 -2.760419	 1.579708	 0.610998

9 5 3 2 F
