%nprocshared=1
%mem=2GB
#HF/6-31G* nosymm scf=tight 

Mol

0 1
O	 -2.638852	 0.152351	 0.576039
C	 -2.162373	 -0.911958	 0.321776
C	 -0.904105	 -1.020097	 -0.521654
C	 -2.762234	 -2.196581	 0.848354
C	 0.346238	 -0.709534	 0.316996
H	 -0.986367	 -0.300329	 -1.328792
H	 -0.821125	 -2.010949	 -0.959092
C	 1.631333	 -0.777471	 -0.511575
H	 0.224754	 0.275582	 0.753084
H	 0.416228	 -1.413393	 1.144904
C	 2.915987	 -0.544314	 0.291766
H	 1.575560	 -0.049619	 -1.318945
H	 1.691653	 -1.754906	 -0.985739
C	 3.373361	 0.914346	 0.347591
H	 3.708709	 -1.142521	 -0.150311
H	 2.780642	 -0.921148	 1.303579
H	 3.506512	 1.320010	 -0.651625
H	 4.322697	 0.999599	 0.867103
H	 2.660624	 1.545032	 0.868198
H	 -3.147552	 -2.786038	 0.020504
H	 -3.566383	 -1.975061	 1.536145
H	 -2.006715	 -2.798287	 1.345290

6 3 2 1 F
6 3 5 8 F
3 5 8 12 F
