%nprocshared=4
%mem=2GB
#HF/cc-pVTZ nosymm scf=tight opt=ModRedundant

Mol

0 1
H	 1.346801	 -1.371155	 0.164348
C	 0.774336	 -0.442633	 0.204087
N	 -0.537714	 -0.645117	 0.000000
O	 1.296375	 0.607407	 0.408073
C	 -1.522613	 0.412524	 0.000000
H	 -0.835217	 -1.575924	 -0.158347
H	 -2.150256	 0.356137	 -0.880771
H	 -1.005621	 1.357208	 0.000000
H	 -2.150256	 0.356137	 0.880771

6 3 5 7 F
