%nprocshared=4
%mem=2GB
#HF/cc-pVTZ nosymm scf=tight opt=ModRedundant

Mol

0 1
H	 -3.258660	 -0.290394	 1.471450
C	 -3.307964	 -0.275695	 0.374072
C	 -2.653809	 0.914422	 -0.273689
O	 -3.855140	 -1.148880	 -0.205112
C	 -1.182815	 1.071167	 0.122901
H	 -2.771186	 0.830580	 -1.346315
H	 -3.207999	 1.790566	 0.055781
C	 -0.282130	 -0.039920	 -0.412295
H	 -0.829366	 2.029148	 -0.242727
H	 -1.104928	 1.114507	 1.206529
C	 1.181996	 0.135720	 -0.018255
H	 -0.363813	 -0.071873	 -1.495538
H	 -0.635820	 -1.004064	 -0.056265
C	 2.082318	 -0.970488	 -0.565037
H	 1.526851	 1.103401	 -0.368990
H	 1.261420	 0.157473	 1.066418
C	 3.545655	 -0.882109	 -0.128305
H	 2.032899	 -0.968980	 -1.651471
H	 1.685360	 -1.930182	 -0.246108
C	 4.301128	 0.329962	 -0.667962
H	 4.055174	 -1.782916	 -0.455916
H	 3.596486	 -0.884450	 0.957382
H	 4.261699	 0.362204	 -1.752121
H	 3.894074	 1.261882	 -0.294441
H	 5.344818	 0.292332	 -0.377685

6 3 2 4 F
