%nprocshared=4
%mem=2GB
#HF/cc-pVTZ nosymm scf=tight opt=ModRedundant

Mol

0 1
H	 -3.470074	 -0.400431	 0.762012
O	 -3.106200	 -0.211208	 -0.084242
C	 -1.772961	 -0.078518	 -0.023690
C	 -1.071126	 -0.214303	 1.167707
C	 -1.103497	 0.202659	 -1.203071
H	 -1.597544	 -0.432474	 2.078593
C	 0.295747	 -0.068297	 1.173579
H	 -1.663680	 0.303385	 -2.110853
C	 0.265442	 0.345863	 -1.180148
H	 0.848746	 -0.170649	 2.086172
C	 0.981121	 0.213562	 0.000000
H	 0.785845	 0.564009	 -2.094539
C	 2.447402	 0.371303	 0.000000
O	 3.227427	 -0.521847	 0.000000
H	 2.796538	 1.409525	 0.000000

7 11 13 14 F
