%nprocshared=1
%mem=2GB
#HF/6-31G* nosymm scf=tight 
prop=(read,field)

Mol

0 1
H	 2.262807	 1.121103	 -0.000009
N	 1.414522	 0.605079	 -0.000002
C	 1.291454	 -0.735319	 0.000014
C	 0.137999	 1.117082	 -0.000034
H	 2.141027	 -1.387472	 0.000022
N	 0.058495	 -1.111696	 0.000007
H	 -0.055152	 2.168242	 -0.000065
C	 -0.685557	 0.045314	 -0.000005
C	 -2.180898	 0.006473	 0.000021
H	 -2.551706	 -0.517213	 -0.874923
H	 -2.596952	 1.007989	 -0.000223
H	 -2.551789	 -0.516890	 0.875175

@grid.dat /N
