%nprocshared=4
%mem=2GB
#HF/cc-pVTZ nosymm scf=tight opt=ModRedundant

Mol

0 1
O	 0.372840	 2.472585	 -1.666157
C	 1.101320	 2.088554	 -0.809846
C	 0.564299	 1.352262	 0.401570
C	 2.595285	 2.294579	 -0.889783
C	 0.376695	 -0.140025	 0.100361
H	 -0.390514	 1.794128	 0.656906
H	 1.234673	 1.476825	 1.245341
C	 1.630207	 -0.772146	 -0.501001
H	 0.103643	 -0.640516	 1.020785
H	 -0.454905	 -0.273415	 -0.587351
C	 2.907848	 -0.545876	 0.309149
H	 1.772784	 -0.391628	 -1.509394
H	 1.468529	 -1.842059	 -0.599744
C	 3.373802	 0.906639	 0.372125
H	 3.699140	 -1.146831	 -0.127906
H	 2.764321	 -0.923458	 1.318191
H	 3.519798	 1.311927	 -0.623875
H	 4.316899	 0.983758	 0.900700
H	 2.661122	 1.540651	 0.885346
H	 2.901366	 2.990562	 -0.115238
H	 2.865028	 2.690455	 -1.856784
H	 3.120464	 1.363371	 -0.709151

3 5 8 12 F
