%nprocshared=4
%mem=2GB
#HF/cc-pVTZ nosymm scf=tight opt=ModRedundant

Mol

0 1
H	 0.663522	 3.761228	 -0.000000
O	 1.415312	 3.195955	 -0.000000
C	 1.056949	 1.899746	 -0.000000
C	 2.072852	 0.954726	 0.000000
C	 -0.261039	 1.495686	 -0.000000
H	 3.090870	 1.290577	 0.000000
C	 1.766131	 -0.386644	 0.000000
H	 -1.064454	 2.202667	 -0.000000
C	 -0.532034	 0.141680	 0.000000
H	 2.557832	 -1.109802	 0.000000
C	 0.449825	 -0.817087	 -0.000000
N	 -1.937041	 -0.281114	 0.000000
H	 0.196729	 -1.854712	 0.000000
O	 -2.159542	 -1.446261	 0.000000
O	 -2.764978	 0.565773	 0.000000

11 9 12 14 F
