%nprocshared=4
%mem=2GB
#HF/6-31G* nosymm scf=tight opt=ModRedundant

Mol

0 1
O	 -0.876541	 1.117833	 -2.460073
C	 -1.390549	 0.762323	 -1.443292
C	 -0.889235	 -0.467034	 -0.705952
C	 -2.537349	 1.528879	 -0.823119
C	 0.379448	 -0.143569	 0.099626
H	 -0.663485	 -1.225847	 -1.447264
H	 -1.658778	 -0.857194	 -0.045948
C	 1.631333	 -0.777471	 -0.511575
H	 0.482768	 0.934507	 0.149241
H	 0.263088	 -0.495696	 1.123449
C	 2.915987	 -0.544314	 0.291766
H	 1.766672	 -0.399098	 -1.523130
H	 1.471257	 -1.849544	 -0.605828
C	 3.373361	 0.914346	 0.347591
H	 3.708709	 -1.142521	 -0.150311
H	 2.780642	 -0.921148	 1.303579
H	 3.506512	 1.320010	 -0.651625
H	 4.322697	 0.999599	 0.867103
H	 2.660624	 1.545032	 0.868198
H	 -3.438284	 0.921437	 -0.847489
H	 -2.707976	 2.446083	 -1.369386
H	 -2.330683	 1.753141	 0.219379

6 3 5 8 F
