%nprocshared=1
%mem=2GB
#HF/6-31G* nosymm scf=tight 

Mol

0 1
O	 1.319589	 0.666084	 0.982544
C	 1.705091	 0.115954	 0.001797
C	 1.130240	 0.284685	 -1.383462
O	 2.721346	 -0.737485	 -0.000216
C	 -0.042335	 1.259191	 -1.438687
H	 1.939491	 0.605094	 -2.033974
H	 0.839992	 -0.701028	 -1.736797
C	 -0.604213	 1.411633	 -2.852942
H	 0.278017	 2.225753	 -1.062760
H	 -0.823056	 0.917789	 -0.766209
C	 -1.780738	 2.386407	 -2.926855
H	 0.184321	 1.750752	 -3.523172
H	 -0.921499	 0.438683	 -3.225205
C	 -2.342502	 2.537377	 -4.339965
H	 -1.464705	 3.359547	 -2.557716
H	 -2.569611	 2.048531	 -2.258531
H	 -1.585475	 2.907337	 -5.025716
H	 -3.174798	 3.234047	 -4.359606
H	 -2.698767	 1.585728	 -4.724346
C	 4.024888	 -0.184556	 -0.001949
H	 4.179030	 0.422472	 -0.882452
H	 4.701782	 -1.024608	 -0.003642
H	 4.181981	 0.421185	 0.878906

15 11 8 12 F
9 5 8 12 F
1 2 3 6 F
9 5 3 6 F
