%nprocshared=4
%mem=2GB
#HF/cc-pVTZ nosymm scf=tight opt=ModRedundant

Mol

0 1
H	 -3.629351	 1.440384	 0.038039
C	 -3.058093	 0.618242	 0.417587
C	 -1.942730	 0.277559	 -0.180113
H	 -3.415550	 0.094491	 1.282288
O	 -1.189946	 -0.765863	 0.237511
H	 -1.570931	 0.800792	 -1.042157
C	 0.026572	 -0.995256	 -0.379403
C	 1.057223	 0.049888	 -0.004615
H	 -0.054361	 -1.010670	 -1.459674
H	 0.397526	 -1.952058	 -0.044198
F	 2.203233	 -0.234060	 -0.590375
F	 0.698147	 1.254887	 -0.392621
F	 1.266440	 0.094219	 1.288722

3 5 7 9 F
