%nprocshared=1
%mem=2GB
#HF/6-31G* nosymm scf=tight opt=ModRedundant

Mol

0 1
O	 -2.821601	 1.309235	 -0.001213
C	 -2.668563	 0.129746	 -0.000350
C	 -3.801572	 -0.864014	 -0.000442
O	 -1.481751	 -0.454642	 0.000584
H	 -4.417280	 -0.689587	 -0.874708
H	 -3.443784	 -1.883046	 -0.000565
H	 -4.417179	 -0.689832	 0.873954
C	 -0.334255	 0.388708	 0.000906
C	 0.891947	 -0.504646	 0.000751
H	 -0.365390	 1.025305	 -0.873475
H	 -0.365484	 1.024911	 0.875569
C	 2.191998	 0.301789	 0.000897
H	 0.855148	 -1.151283	 -0.871571
H	 0.855132	 -1.151660	 0.872805
C	 2.103657	 1.574550	 0.845054
H	 3.005065	 -0.318876	 0.373435
H	 2.455059	 0.568017	 -1.021357
C	 3.402603	 2.379289	 0.846250
H	 1.841208	 1.310307	 1.866999
H	 1.293136	 2.197030	 0.472704
H	 4.226205	 1.794109	 1.245323
H	 3.308921	 3.274642	 1.452717
H	 3.673832	 2.687781	 -0.159372

16 12 9 13 F
