%nprocshared=4
%mem=2GB
#HF/cc-pVTZ nosymm scf=tight opt=ModRedundant

Mol

0 1
O	 1.282034	 0.013377	 1.167554
C	 1.121787	 0.124983	 0.000110
C	 -0.044244	 0.813506	 -0.661533
O	 1.969101	 -0.353489	 -0.896273
C	 -0.379281	 2.169431	 -0.057264
H	 0.191887	 0.901096	 -1.717019
H	 -0.890951	 0.137345	 -0.603608
C	 0.831303	 3.096712	 -0.003001
H	 -0.778533	 2.027941	 0.940793
H	 -1.171405	 2.632963	 -0.634519
C	 0.507231	 4.457812	 0.603033
H	 1.622762	 2.625452	 0.573841
H	 1.227038	 3.234557	 -1.005811
H	 0.141437	 4.355830	 1.619094
H	 1.384093	 5.094303	 0.628890
H	 -0.257042	 4.969416	 0.027943
C	 3.226978	 0.281687	 -1.004047
H	 3.107866	 1.319775	 -1.276836
H	 3.762124	 -0.246898	 -1.776112
H	 3.765395	 0.222432	 -0.069799

1 2 4 17 F
