%nprocshared=4
%mem=2GB
#HF/cc-pVTZ nosymm scf=tight opt=ModRedundant

Mol

0 1
H	 -3.962769	 -0.414093	 0.841125
C	 -2.913189	 -0.265435	 0.672426
C	 -2.420067	 1.011950	 0.475555
C	 -2.058257	 -1.351106	 0.652549
H	 -3.084250	 1.854160	 0.491118
C	 -1.071237	 1.202179	 0.258837
H	 -2.441669	 -2.341320	 0.805329
C	 -0.707408	 -1.162253	 0.435667
H	 -0.672591	 2.184195	 0.104616
C	 -0.209983	 0.116042	 0.238076
H	 -0.042606	 -2.000890	 0.419665
C	 1.238974	 0.374429	 0.000004
O	 1.968286	 -0.725612	 -0.000027
O	 1.696610	 1.454250	 -0.172443
C	 3.373556	 -0.568203	 0.000011
H	 3.695416	 -0.031588	 -0.879663
H	 3.782700	 -1.565294	 -0.000152
H	 3.695405	 -0.031851	 0.879862

10 12 13 15 F
