%nprocshared=1
%mem=2GB
#HF/6-31G* nosymm scf=tight 

Mol

0 1
H	 -3.261111	 -0.295142	 1.469456
C	 -3.306842	 -0.277400	 0.373456
C	 -2.660244	 0.921717	 -0.272021
O	 -3.838538	 -1.161155	 -0.216482
C	 -3.675828	 1.825990	 -0.984155
H	 -2.108394	 1.463128	 0.487613
H	 -1.943435	 0.545049	 -1.000692
C	 -4.650675	 2.519385	 -0.029076
H	 -3.131091	 2.575524	 -1.550499
H	 -4.231665	 1.239879	 -1.714412
C	 -5.649317	 3.425946	 -0.751348
H	 -4.085473	 3.104587	 0.693373
H	 -5.195180	 1.774162	 0.547723
C	 -6.612331	 4.130227	 0.208100
H	 -5.099937	 4.161321	 -1.333704
H	 -6.221728	 2.835076	 -1.465212
C	 -7.684830	 4.985769	 -0.475906
H	 -6.043306	 4.751944	 0.897573
H	 -7.108294	 3.377811	 0.817694
C	 -7.143578	 6.205338	 -1.223782
H	 -8.386989	 5.325518	 0.281387
H	 -8.256924	 4.365103	 -1.162494
H	 -6.552962	 6.836568	 -0.565002
H	 -6.515403	 5.922479	 -2.061852
H	 -7.956787	 6.808293	 -1.616376

6 3 5 8 F
3 5 8 12 F
12 8 11 14 F
8 11 14 18 F
20 17 14 18 F
