%nprocshared=1
%mem=2GB
#HF/6-31G* nosymm scf=tight 

Mol

0 1
O	 2.862325	 1.357334	 0.000267
C	 2.843464	 0.164689	 -0.000222
C	 1.546494	 -0.624492	 -0.000609
C	 4.124123	 -0.644674	 -0.000428
C	 0.291004	 0.242674	 0.000989
H	 1.557904	 -1.283758	 -0.867573
H	 1.558622	 -1.285963	 0.864672
C	 0.607246	 1.731886	 0.149310
H	 -0.361907	 -0.078164	 0.806532
H	 -0.260386	 0.072054	 -0.918253
C	 -0.644409	 2.611133	 0.153551
H	 1.163213	 1.895365	 1.071384
H	 1.263626	 2.046605	 -0.660743
C	 -0.336335	 4.102158	 0.301702
H	 -1.300973	 2.297874	 0.963373
H	 -1.200527	 2.449184	 -0.768133
C	 -1.591621	 4.973897	 0.305311
H	 0.218519	 4.265447	 1.223275
H	 0.318695	 4.416816	 -0.508104
H	 -2.252298	 4.706289	 1.125091
H	 -1.340961	 6.024814	 0.412289
H	 -2.150819	 4.859632	 -0.619019
H	 4.165367	 -1.288615	 -0.874074
H	 4.976217	 0.020734	 -0.001915
H	 4.166763	 -1.286207	 0.874930

9 5 8 12 F
15 11 8 12 F
15 11 14 18 F
1 2 3 6 F
