%nprocshared=4
%mem=2GB
#HF/cc-pVTZ nosymm scf=tight opt=ModRedundant

Mol

0 1
O	 -2.473091	 -1.059580	 0.408300
C	 -1.940183	 -0.002794	 0.390559
C	 -2.647004	 1.315727	 0.533242
O	 -0.637375	 0.157174	 0.243149
H	 -2.467129	 1.921502	 -0.345621
H	 -3.704264	 1.147236	 0.657542
H	 -2.251229	 1.850100	 1.387278
C	 0.162530	 -1.009518	 0.097799
C	 1.587210	 -0.664190	 0.477086
H	 0.096803	 -1.356267	 -0.924704
H	 -0.233803	 -1.785900	 0.736810
C	 2.256770	 0.342732	 -0.454344
H	 2.154716	 -1.590834	 0.479041
H	 1.598751	 -0.289614	 1.496104
C	 3.698146	 0.643205	 -0.057145
H	 2.235038	 -0.042575	 -1.470299
H	 1.683491	 1.262594	 -0.461300
H	 4.150202	 1.356548	 -0.736242
H	 4.305463	 -0.255904	 -0.069842
H	 3.749130	 1.061068	 0.942759

2 4 8 10 F
