%nprocshared=1
%mem=2GB
#HF/6-31G* nosymm scf=tight 

Mol

0 1
O	 2.025183	 0.132352	 -1.022283
C	 2.701189	 0.057885	 -0.047330
C	 2.943722	 1.171266	 0.942795
O	 3.347903	 -1.046386	 0.304773
C	 2.208823	 2.461625	 0.586405
H	 2.657075	 0.796392	 1.919777
H	 4.017622	 1.333058	 0.990314
C	 2.527326	 3.632078	 1.522935
H	 1.139064	 2.275332	 0.581152
H	 2.469270	 2.738525	 -0.429428
C	 2.041513	 3.455821	 2.964472
H	 2.070373	 4.528180	 1.109511
H	 3.601036	 3.814167	 1.523471
C	 2.285183	 4.693769	 3.829984
H	 0.977149	 3.225821	 2.957619
H	 2.535381	 2.603008	 3.424665
C	 1.808409	 4.527188	 5.273961
H	 1.782594	 5.549833	 3.383002
H	 3.348007	 4.930629	 3.828554
C	 2.051917	 5.769210	 6.130573
H	 0.746750	 4.289467	 5.277186
H	 2.312909	 3.674611	 5.723821
H	 1.703666	 5.620309	 7.147999
H	 1.531411	 6.632673	 5.725975
H	 3.109582	 6.013348	 6.175480
C	 4.728119	 -1.109107	 -0.004993
H	 4.882018	 -1.033965	 -1.071845
H	 5.068212	 -2.067527	 0.355250
H	 5.265056	 -0.311663	 0.488280

21 17 14 11 F
17 14 11 15 F
15 11 8 5 F
6 3 5 9 F
11 8 5 9 F
2 4 26 27 F
6 3 2 1 F
