%nprocshared=1
%mem=2GB
#HF/6-31G* nosymm scf=tight 

Mol

0 1
O	 -2.042549	 -1.228399	 -0.269030
C	 -1.653912	 -0.146171	 0.050137
C	 -0.332303	 0.024011	 0.778412
C	 -2.438579	 1.106236	 -0.272369
C	 0.845713	 -0.001731	 -0.208243
H	 -0.323783	 0.953829	 1.340327
H	 -0.235459	 -0.796807	 1.480410
C	 0.424914	 0.345751	 -1.636954
H	 1.310435	 -0.986140	 -0.200890
H	 1.599558	 0.700768	 0.134328
C	 1.595962	 0.329672	 -2.618582
H	 -0.336662	 -0.355853	 -1.970391
H	 -0.039731	 1.328922	 -1.643881
H	 2.060824	 -0.651291	 -2.659419
H	 2.359605	 1.045452	 -2.328840
H	 1.268840	 0.582442	 -3.622138
H	 -3.277823	 0.863061	 -0.908988
H	 -1.806773	 1.843019	 -0.759671
H	 -2.802853	 1.554979	 0.648059

11 8 5 9 F
5 3 2 4 F
