%nprocshared=4
%mem=2GB
#HF/cc-pVTZ nosymm scf=tight opt=ModRedundant

Mol

0 1
O	 0.219783	 0.017900	 0.759045
C	 1.121787	 0.124983	 0.000110
C	 1.241465	 1.174615	 -1.074791
O	 2.167739	 -0.685178	 -0.000678
C	 0.065060	 2.138743	 -1.124330
H	 2.174788	 1.701716	 -0.905813
H	 1.363171	 0.654197	 -2.019150
C	 0.218779	 3.187334	 -2.222117
H	 -0.038500	 2.627121	 -0.161884
H	 -0.850766	 1.578806	 -1.276903
C	 -0.953800	 4.160314	 -2.279214
H	 1.139754	 3.742851	 -2.065762
H	 0.322283	 2.692034	 -3.183990
H	 -1.062136	 4.696753	 -1.342688
H	 -0.817726	 4.892528	 -3.066629
H	 -1.885506	 3.638367	 -2.469150
C	 3.449556	 -0.089977	 -0.000570
H	 3.585694	 0.522473	 -0.879546
H	 4.155805	 -0.904274	 -0.001389
H	 3.586173	 0.521118	 0.879272

1 2 4 17 F
