%nprocshared=4
%mem=2GB
#HF/cc-pVTZ nosymm scf=tight opt=ModRedundant

Mol

0 1
H	 2.148137	 -0.602774	 -4.912815
C	 2.465925	 0.069076	 -4.123832
C	 1.313021	 0.396601	 -3.181038
H	 3.280124	 -0.409039	 -3.590257
H	 2.858563	 0.966257	 -4.591487
C	 1.721586	 1.350994	 -2.061137
H	 0.930397	 -0.522077	 -2.751422
H	 0.498954	 0.839802	 -3.749977
C	 0.585923	 1.701872	 -1.105082
H	 2.537406	 0.917974	 -1.495664
H	 2.094660	 2.272093	 -2.499517
C	 0.166485	 0.574257	 -0.177158
H	 0.886259	 2.525696	 -0.462526
H	 -0.284926	 2.055851	 -1.648993
C	 -1.180025	 0.697761	 0.509157
O	 0.870246	 -0.362356	 0.024711
C	 -2.285431	 -0.137488	 -0.145671
H	 -1.447360	 1.745713	 0.496200
H	 -1.065514	 0.394096	 1.546399
C	 -3.646545	 0.082747	 0.508954
H	 -2.348635	 0.118247	 -1.199806
H	 -2.034895	 -1.192387	 -0.096473
C	 -4.757412	 -0.737227	 -0.138149
H	 -3.900211	 1.137405	 0.459735
H	 -3.580878	 -0.166775	 1.564416
H	 -4.867876	 -0.486707	 -1.187777
H	 -4.549650	 -1.800049	 -0.072540
H	 -5.709585	 -0.556397	 0.346597

16 12 15 17 F
