%nprocshared=4
%mem=2GB
#HF/cc-pVTZ nosymm scf=tight opt=ModRedundant

Mol

0 1
H	 -0.710013	 3.753191	 6.219610
C	 -1.253098	 2.832501	 6.040009
C	 -1.436667	 2.583059	 4.546890
H	 -0.697046	 2.024759	 6.503231
H	 -2.209858	 2.908579	 6.546588
C	 -2.208400	 1.297969	 4.255443
H	 -0.464420	 2.536907	 4.069874
H	 -1.963591	 3.425311	 4.104411
C	 -2.412984	 1.025343	 2.768598
H	 -1.692061	 0.456410	 4.700416
H	 -3.184401	 1.356140	 4.728542
C	 -1.158526	 0.603377	 2.022431
H	 -3.128600	 0.217670	 2.636976
H	 -2.848079	 1.887351	 2.271453
C	 -1.180025	 0.697761	 0.509157
O	 -0.200097	 0.194027	 2.594376
C	 -2.285431	 -0.137488	 -0.145671
H	 -0.209921	 0.373472	 0.157623
H	 -1.304974	 1.741273	 0.232271
C	 -3.646545	 0.082747	 0.508954
H	 -2.348635	 0.118247	 -1.199806
H	 -2.034895	 -1.192387	 -0.096473
C	 -4.757412	 -0.737227	 -0.138149
H	 -3.900211	 1.137405	 0.459735
H	 -3.580878	 -0.166775	 1.564416
H	 -4.867876	 -0.486707	 -1.187777
H	 -4.549650	 -1.800049	 -0.072540
H	 -5.709585	 -0.556397	 0.346597

16 12 15 17 F
