%nprocshared=4
%mem=2GB
#HF/6-31G* nosymm scf=tight opt=ModRedundant

Mol

0 1
H	 -3.161837	 0.500524	 -0.000234
C	 -2.367097	 -0.232926	 -0.000000
O	 -1.158440	 0.455814	 -0.000122
H	 -2.468853	 -0.861886	 -0.882833
H	 -2.468942	 -0.861421	 0.883154
C	 -0.029776	 -0.365156	 0.000148
C	 1.091123	 0.342746	 0.741176
H	 0.273851	 -0.586241	 -1.023977
H	 -0.258532	 -1.317650	 0.480078
C	 2.373525	 -0.486592	 0.791417
H	 1.278930	 1.294362	 0.253511
H	 0.750353	 0.568047	 1.747066
H	 2.745254	 -0.702659	 -0.206359
H	 3.155748	 0.041927	 1.325870
H	 2.212769	 -1.434587	 1.297250

8 6 3 2 F
