%nprocshared=4
%mem=2GB
#HF/cc-pVTZ nosymm scf=tight opt=ModRedundant

Mol

0 1
H	 -1.713577	 2.347071	 -0.730434
C	 -0.694511	 1.984070	 -0.756985
C	 -0.600949	 0.658697	 -0.000002
H	 -0.052611	 2.730839	 -0.309341
H	 -0.401380	 1.860084	 -1.790807
C	 0.763408	 0.112229	 -0.000006
H	 -0.905746	 0.782405	 1.030885
H	 -1.252552	 -0.083446	 -0.442236
N	 1.806008	 -0.317179	 0.000007

7 3 6 9 F
