%nprocshared=1
%mem=2GB
#HF/6-31G* nosymm scf=tight 

Mol

0 1
H	 -1.010156	 -0.943943	 0.874177
N	 -0.626943	 -0.667432	 -0.000092
C	 -1.270011	 -1.135152	 -1.206913
C	 0.469286	 0.129090	 0.000148
H	 -1.265628	 -2.219004	 -1.254357
H	 -0.725382	 -0.745676	 -2.051552
H	 -2.296734	 -0.788641	 -1.259839
C	 1.788933	 -0.616240	 -0.000037
O	 0.411098	 1.327768	 -0.000049
H	 1.872803	 -1.245775	 -0.880381
H	 2.595421	 0.101576	 0.003713
H	 1.870096	 -1.252171	 0.875943

4 2 3 5 F
