%nprocshared=1
%mem=2GB
#HF/6-31G* nosymm scf=tight opt=ModRedundant

Mol

0 1
O	 2.317525	 0.261614	 -1.153837
C	 2.701189	 0.057885	 -0.047330
C	 2.530299	 0.988491	 1.128916
O	 3.347903	 -1.046386	 0.304773
C	 1.779209	 2.270322	 0.775520
H	 2.029621	 0.425757	 1.909841
H	 3.523024	 1.209912	 1.512538
C	 1.689054	 3.271623	 1.932138
H	 0.781557	 2.017524	 0.429249
H	 2.276927	 2.742156	 -0.064760
C	 0.846922	 2.807014	 3.123802
H	 1.264322	 4.195201	 1.545708
H	 2.692263	 3.521405	 2.274468
C	 0.697256	 3.882376	 4.201854
H	 -0.140105	 2.511965	 2.770894
H	 1.288940	 1.919950	 3.571809
C	 -0.138042	 3.427424	 5.399948
H	 0.242887	 4.769675	 3.764267
H	 1.684315	 4.185546	 4.547544
C	 -0.285867	 4.508376	 6.470177
H	 -1.124388	 3.123164	 5.056160
H	 0.316952	 2.543157	 5.841346
H	 -0.882537	 4.156057	 7.305919
H	 -0.769913	 5.394122	 6.068494
H	 0.682607	 4.810007	 6.859214
C	 4.728119	 -1.109107	 -0.004993
H	 4.882018	 -1.033965	 -1.071845
H	 5.068212	 -2.067527	 0.355250
H	 5.265056	 -0.311663	 0.488280

1 2 4 26 F
