%nprocshared=1
%mem=2GB
#HF/6-31G* nosymm scf=tight 
prop=(read,field)

Mol

0 1
H	 2.465174	 -2.224352	 -0.000000
O	 2.784023	 -1.332144	 0.000000
C	 1.765148	 -0.449494	 -0.000000
C	 2.091843	 0.902990	 0.000000
C	 0.440766	 -0.842108	 -0.000000
H	 3.128490	 1.182675	 0.000000
C	 1.093547	 1.855077	 -0.000000
H	 0.160433	 -1.876970	 -0.000000
C	 -0.536323	 0.140295	 -0.000000
H	 1.354733	 2.897017	 0.000000
C	 -0.244941	 1.485897	 -0.000000
N	 -1.935768	 -0.280463	 -0.000000
H	 -1.030470	 2.212773	 -0.000000
O	 -2.161859	 -1.453031	 0.000000
O	 -2.770506	 0.571287	 0.000000

@grid.dat /N
