%nprocshared=1
%mem=2GB
#HF/6-31G* nosymm scf=tight 
prop=(read,field)

Mol

0 1
H	 -1.109786	 -0.804348	 0.348702
N	 -0.712515	 0.000013	 -0.096306
C	 0.734108	 -0.000004	 0.040613
H	 -1.109809	 0.804284	 0.348849
H	 1.139815	 -0.873598	 -0.456460
H	 1.139856	 0.873831	 -0.456096
H	 1.096372	 -0.000300	 1.069658

@grid.dat /N
