%nprocshared=1
%mem=2GB
#HF/6-31G* nosymm scf=tight 

Mol

0 1
H	 1.813164	 2.228903	 -1.761919
O	 2.619538	 1.835167	 -2.061593
C	 3.120759	 0.971516	 -1.073191
C	 2.320300	 -0.319396	 -0.940762
H	 4.136446	 0.743005	 -1.369566
H	 3.171642	 1.481371	 -0.111818
C	 0.876160	 -0.111528	 -0.478035
H	 2.326158	 -0.828809	 -1.900882
H	 2.836595	 -0.967533	 -0.234557
C	 0.115918	 -1.429151	 -0.302766
H	 0.356793	 0.513925	 -1.198752
H	 0.873441	 0.430879	 0.467549
C	 -1.309753	 -1.282496	 0.241564
H	 0.084984	 -1.954110	 -1.255818
H	 0.679512	 -2.066292	 0.375551
C	 -2.037799	 -0.007733	 -0.193645
H	 -1.890610	 -2.142323	 -0.085726
H	 -1.285946	 -1.330893	 1.329189
C	 -3.489788	 0.042957	 0.286558
H	 -2.017067	 0.064384	 -1.280144
H	 -1.513726	 0.868678	 0.179924
C	 -4.216917	 1.317354	 -0.141063
H	 -4.025645	 -0.823308	 -0.095450
H	 -3.513059	 -0.038752	 1.371301
H	 -4.239342	 1.411634	 -1.223113
H	 -5.243387	 1.322503	 0.212445
H	 -3.726170	 2.201406	 0.256408

14 10 7 4 F
10 7 4 8 F
8 4 3 2 F
10 13 16 20 F
20 16 19 22 F
4 3 2 1 F
