%nprocshared=1
%mem=2GB
#HF/6-31G* nosymm scf=tight 

Mol

0 1
H	 -3.420663	 1.227371	 -1.044276
O	 -3.452007	 0.283848	 -0.965577
C	 -3.181085	 -0.079926	 0.364119
C	 -1.765924	 0.277073	 0.805136
H	 -3.327791	 -1.152017	 0.410903
H	 -3.905698	 0.375695	 1.036898
C	 -1.020758	 -0.884158	 1.464520
H	 -1.203588	 0.630899	 -0.059472
H	 -1.823985	 1.118484	 1.493524
C	 0.405770	 -0.521863	 1.882777
H	 -0.999392	 -1.727795	 0.781490
H	 -1.580292	 -1.213433	 2.338530
C	 1.143252	 -1.687419	 2.547371
H	 0.956033	 -0.184706	 1.007588
H	 0.378175	 0.322771	 2.570117
C	 2.546002	 -1.347897	 3.064261
H	 1.211093	 -2.517088	 1.845416
H	 0.545489	 -2.046213	 3.382693
C	 3.559444	 -1.000914	 1.972042
H	 2.920147	 -2.198714	 3.628546
H	 2.479078	 -0.522434	 3.770190
H	 3.638287	 -1.803861	 1.243895
H	 4.546004	 -0.843961	 2.397368
H	 3.288290	 -0.095920	 1.438539

20 16 13 17 F
17 13 10 7 F
13 10 7 11 F
11 7 4 3 F
1 2 3 5 F
