%nprocshared=1
%mem=2GB
#HF/6-31G* nosymm scf=tight 

Mol

0 1
H	 -0.784465	 4.447774	 0.616431
O	 -0.101902	 3.844857	 0.358548
C	 -0.546125	 2.524403	 0.536481
C	 0.571087	 1.586992	 0.113581
H	 -0.808631	 2.345627	 1.578324
H	 -1.437031	 2.336070	 -0.061145
C	 0.198102	 0.111031	 0.262842
H	 1.451011	 1.812978	 0.709729
H	 0.828869	 1.806198	 -0.918880
C	 1.331804	 -0.827780	 -0.158768
H	 -0.079833	 -0.084653	 1.295621
H	 -0.684448	 -0.103565	 -0.338466
C	 2.723619	 -0.410569	 0.329459
H	 1.342964	 -0.912588	 -1.244120
H	 1.116806	 -1.824343	 0.220779
C	 3.243875	 0.895854	 -0.272975
H	 3.424222	 -1.207124	 0.091250
H	 2.714788	 -0.329854	 1.414619
H	 3.251977	 0.848779	 -1.358681
H	 2.637085	 1.747371	 0.016682
H	 4.259473	 1.094070	 0.055697

2 3 4 8 F
8 4 7 10 F
16 13 10 14 F
1 2 3 5 F
