%nprocshared=4
%mem=2GB
#HF/cc-pVTZ nosymm scf=tight opt=ModRedundant

Mol

0 1
H	 -3.268214	 -0.875720	 0.463107
C	 -2.806015	 0.000007	 0.024886
N	 -1.391133	 0.000016	 0.301321
H	 -3.029448	 0.000055	 -1.045738
H	 -3.268126	 0.875758	 0.463150
C	 -1.107518	 -0.000048	 1.720172
C	 -0.700887	 1.085220	 -0.361570
H	 -1.499314	 0.898879	 2.205226
H	 -1.593507	 -0.855131	 2.174850
C	 0.386917	 -0.083671	 1.968532
H	 -0.890010	 1.022427	 -1.426643
H	 -1.064959	 2.058128	 -0.018425
C	 0.793549	 1.001596	 -0.113211
H	 0.576041	 -0.020879	 3.033604
H	 0.750990	 -1.056579	 1.625386
N	 1.077164	 1.001532	 1.305641
H	 1.279537	 1.856680	 -0.567888
H	 1.185344	 0.102669	 -0.598264
C	 2.492046	 1.001541	 1.582076
H	 2.659990	 1.064424	 2.649973
H	 2.958862	 1.862255	 1.119673
H	 2.996797	 0.104289	 1.212855

6 3 2 4 F
