%nprocshared=4
%mem=2GB
#HF/cc-pVTZ nosymm scf=tight opt=ModRedundant

Mol

0 1
O	 0.517510	 1.228548	 -0.532366
C	 0.485107	 0.171416	 -0.000134
C	 1.606966	 -0.836201	 0.000174
O	 -0.560068	 -0.271352	 0.676734
C	 2.988788	 -0.202529	 -0.000115
H	 1.465110	 -1.474645	 -0.864821
H	 1.465209	 -1.474077	 0.865596
H	 3.131767	 0.419673	 -0.873407
H	 3.750876	 -0.972315	 0.000098
H	 3.131883	 0.420264	 0.872742
C	 -1.699220	 0.573002	 0.764413
C	 -2.747892	 -0.149404	 1.577372
H	 -2.052655	 0.793666	 -0.232953
H	 -1.411918	 1.506668	 1.227066
H	 -3.026852	 -1.082922	 1.105038
H	 -3.633474	 0.469048	 1.663940
H	 -2.382515	 -0.365808	 2.573384

4 2 3 6 F
