%nprocshared=1
%mem=2GB
#HF/6-31G* nosymm scf=tight opt=ModRedundant

Mol

0 1
H	 3.290678	 3.309784	 -3.409781
C	 3.493583	 2.623512	 -2.593459
C	 2.275203	 2.471690	 -1.683691
H	 3.777340	 1.668954	 -3.026637
H	 4.349929	 3.006066	 -2.044712
C	 2.529749	 1.514881	 -0.516843
H	 1.433945	 2.113620	 -2.268218
H	 1.994241	 3.448529	 -1.293129
C	 1.333400	 1.356657	 0.421763
H	 2.808033	 0.539603	 -0.900294
H	 3.373933	 1.879613	 0.063988
C	 0.169600	 0.576866	 -0.172154
H	 1.638979	 0.821437	 1.319500
H	 0.977332	 2.325698	 0.764328
C	 -1.181045	 0.701995	 0.511084
O	 0.309504	 -0.124148	 -1.128926
C	 -2.285934	 -0.139295	 -0.145128
H	 -1.449051	 1.751551	 0.493206
H	 -1.071135	 0.403303	 1.551943
C	 -3.651768	 0.085446	 0.506485
H	 -2.346596	 0.110469	 -1.202272
H	 -2.034737	 -1.195320	 -0.088721
C	 -4.759797	 -0.746382	 -0.137905
H	 -3.908762	 1.140117	 0.445781
H	 -3.588286	 -0.154158	 1.565709
H	 -4.868882	 -0.505166	 -1.191300
H	 -4.548009	 -1.809175	 -0.062213
H	 -5.715422	 -0.564821	 0.343442

16 12 15 17 F
