%nprocshared=1
%mem=2GB
#HF/6-31G* nosymm scf=tight opt=ModRedundant

Mol

0 1
O	 0.161643	 0.835271	 -0.929108
C	 0.486307	 0.169203	 0.000779
C	 1.608116	 -0.841643	 0.000302
O	 -0.108845	 0.227430	 1.184000
C	 2.990107	 -0.200498	 -0.000684
H	 1.468623	 -1.481519	 -0.865924
H	 1.469683	 -1.481289	 0.866878
H	 3.129736	 0.423364	 -0.875135
H	 3.757882	 -0.966877	 -0.001197
H	 3.130964	 0.423383	 0.873533
C	 -1.190702	 1.141266	 1.331951
C	 -1.696153	 1.019758	 2.753945
H	 -1.959788	 0.896574	 0.612079
H	 -0.839614	 2.141214	 1.116467
H	 -2.038978	 0.011303	 2.955559
H	 -2.525182	 1.702195	 2.910913
H	 -0.912755	 1.262797	 3.462801

4 2 3 6 F
