%nprocshared=4
%mem=2GB
#HF/6-31G* nosymm scf=tight opt=ModRedundant

Mol

0 1
H	 2.574426	 -2.946483	 -1.898080
C	 2.548501	 -2.250430	 -1.065861
C	 1.292429	 -1.381579	 -1.114270
H	 2.588630	 -2.831620	 -0.148890
H	 3.449858	 -1.645824	 -1.113341
C	 1.217350	 -0.386724	 0.039429
H	 0.404174	 -2.005173	 -1.091389
H	 1.266126	 -0.839219	 -2.057957
N	 0.000003	 0.397874	 -0.023260
H	 1.217261	 -0.929191	 0.981073
H	 2.116431	 0.238591	 0.042949
C	 -1.217365	 -0.386708	 0.039277
H	 -0.000031	 1.072115	 0.718656
C	 -2.452633	 0.504241	 -0.042481
H	 -1.215291	 -1.074557	 -0.802042
H	 -1.269739	 -1.003477	 0.942735
C	 -3.758029	 -0.289423	 -0.010781
H	 -2.394220	 1.093569	 -0.952170
H	 -2.440793	 1.210787	 0.785871
H	 -3.816659	 -0.981993	 -0.845726
H	 -4.617837	 0.370165	 -0.069296
H	 -3.847478	 -0.867502	 0.904682

10 6 9 12 F
