%nprocshared=4
%mem=2GB
#HF/cc-pVTZ nosymm scf=tight opt=ModRedundant

Mol

0 1
H	 2.614283	 2.028610	 0.296620
O	 3.358864	 1.662087	 -0.142800
C	 3.565468	 0.338079	 0.273842
C	 2.533667	 -0.637565	 -0.272227
H	 4.548038	 0.064914	 -0.086598
H	 3.593945	 0.282242	 1.360360
C	 2.635664	 -2.047182	 0.306069
H	 1.543201	 -0.235020	 -0.082247
H	 2.654638	 -0.682144	 -1.351938
C	 1.605995	 -3.006338	 -0.289446
H	 2.508303	 -2.003234	 1.382568
H	 3.634983	 -2.439365	 0.124847
C	 1.710449	 -4.451956	 0.199975
H	 0.606862	 -2.629504	 -0.084611
H	 1.714609	 -3.001331	 -1.370485
C	 1.371328	 -4.661412	 1.674718
H	 1.040996	 -5.063643	 -0.398524
H	 2.713572	 -4.824753	 0.005237
C	 1.393274	 -6.130275	 2.089893
H	 0.385965	 -4.247444	 1.877595
H	 2.067378	 -4.110589	 2.300107
C	 1.058799	 -6.342670	 3.562614
H	 0.689324	 -6.686753	 1.477224
H	 2.374513	 -6.547623	 1.880004
H	 0.069394	 -5.964461	 3.797717
H	 1.080595	 -7.394756	 3.822898
H	 1.767993	 -5.829155	 4.203471

8 4 3 2 F
