%nprocshared=4
%mem=2GB
#HF/cc-pVTZ nosymm scf=tight opt=ModRedundant

Mol

0 1
O	 0.042245	 -0.326961	 0.177299
C	 1.121787	 0.124983	 0.000110
C	 1.713244	 1.295781	 0.742319
O	 1.969101	 -0.353489	 -0.896273
C	 1.527986	 1.222520	 2.251039
H	 2.764333	 1.345592	 0.477345
H	 1.263034	 2.194802	 0.334235
C	 2.032406	 -0.093712	 2.835337
H	 0.478294	 1.351916	 2.489669
H	 2.046245	 2.053463	 2.716319
C	 1.849491	 -0.178706	 4.346697
H	 1.511870	 -0.922626	 2.362914
H	 3.084560	 -0.217872	 2.592866
H	 0.803044	 -0.092504	 4.618916
H	 2.215800	 -1.122566	 4.733510
H	 2.387223	 0.617254	 4.850555
C	 3.226978	 0.281687	 -1.004047
H	 3.107866	 1.319775	 -1.276836
H	 3.762124	 -0.246898	 -1.776112
H	 3.765395	 0.222432	 -0.069799

1 2 4 17 F
