%nprocshared=4
%mem=2GB
#HF/cc-pVTZ nosymm scf=tight opt=ModRedundant

Mol

0 1
H	 3.083659	 -1.378387	 0.000000
O	 2.179005	 -1.633391	 0.000000
C	 1.366950	 -0.558201	 0.000000
C	 1.240568	 0.274396	 1.101586
C	 0.646412	 -0.297160	 -1.147477
H	 1.802612	 0.069568	 1.994659
C	 0.395330	 1.364446	 1.053442
H	 0.741836	 -0.938309	 -1.999924
C	 -0.198384	 0.797422	 -1.187149
H	 0.305615	 2.001612	 1.911810
C	 -0.328985	 1.632541	 -0.090635
C	 -0.980106	 1.089637	 -2.417149
H	 -0.987038	 2.479431	 -0.131032
O	 -0.944478	 0.444160	 -3.407861
H	 -1.619675	 1.975307	 -2.352806

4 3 2 1 F
