%nprocshared=4
%mem=2GB
#HF/cc-pVTZ nosymm scf=tight opt=ModRedundant

Mol

0 1
H	 2.513203	 -1.119262	 1.106955
N	 1.535166	 -0.929427	 1.124707
C	 0.806789	 -1.923006	 0.361746
C	 1.265175	 0.411898	 0.647429
H	 1.015816	 -2.905020	 0.768326
H	 1.092907	 -1.927992	 -0.691691
C	 -0.681559	 -1.641071	 0.458742
H	 1.806360	 1.121810	 1.261022
H	 1.580254	 0.554432	 -0.387959
C	 -0.223774	 0.690774	 0.744050
H	 -1.004668	 -1.788843	 1.493321
H	 -1.224240	 -2.347149	 -0.158566
N	 -0.976577	 -0.298712	 -0.000000
H	 -0.435447	 1.670765	 0.333038
H	 -0.515344	 0.703646	 1.798285
C	 -2.391156	 -0.021003	 -0.000000
H	 -2.853954	 -0.458728	 -0.875714
H	 -2.853954	 -0.458728	 0.875714
H	 -2.614037	 1.049773	 -0.000000

7 13 16 19 F
