%nprocshared=4
%mem=2GB
#HF/cc-pVTZ nosymm scf=tight opt=ModRedundant

Mol

0 1
O	 -2.071633	 -1.227563	 -0.223463
C	 -1.652164	 -0.152425	 0.058082
C	 -0.327811	 0.006324	 0.778296
C	 -2.402515	 1.108629	 -0.298924
C	 -0.464784	 0.941739	 1.985632
H	 0.041714	 -0.960856	 1.102550
H	 0.380387	 0.423168	 0.073644
C	 0.853106	 1.142158	 2.728078
H	 -1.206621	 0.546488	 2.674942
H	 -0.840050	 1.899533	 1.641871
C	 0.724418	 2.081707	 3.922167
H	 1.227253	 0.179216	 3.064650
H	 1.594636	 1.534183	 2.038158
H	 0.014554	 1.698642	 4.647692
H	 0.382140	 3.063078	 3.612126
H	 1.676044	 2.206767	 4.425327
H	 -3.240910	 0.874416	 -0.936711
H	 -1.747554	 1.818823	 -0.790984
H	 -2.760419	 1.579708	 0.610998

5 3 2 4 F
