%nprocshared=4
%mem=2GB
#HF/cc-pVTZ nosymm scf=tight opt=ModRedundant

Mol

0 1
H	 2.609795	 -2.530124	 -3.660240
C	 2.672150	 -1.470193	 -3.442237
C	 1.436170	 -0.988428	 -2.690187
H	 3.571014	 -1.304937	 -2.858328
H	 2.788654	 -0.944897	 -4.384729
C	 1.484039	 0.504993	 -2.374950
H	 1.337387	 -1.549520	 -1.768040
H	 0.549653	 -1.200937	 -3.283273
C	 0.256706	 1.017092	 -1.627759
H	 2.369233	 0.723790	 -1.790666
H	 1.573364	 1.060248	 -3.304195
C	 0.166485	 0.574257	 -0.177158
H	 0.261790	 2.104053	 -1.611823
H	 -0.657360	 0.735038	 -2.142003
C	 -1.180025	 0.697761	 0.509157
O	 1.115349	 0.165117	 0.410667
C	 -2.285431	 -0.137488	 -0.145671
H	 -1.447360	 1.745713	 0.496200
H	 -1.065514	 0.394096	 1.546399
C	 -3.646545	 0.082747	 0.508954
H	 -2.348635	 0.118247	 -1.199806
H	 -2.034895	 -1.192387	 -0.096473
C	 -4.757412	 -0.737227	 -0.138149
H	 -3.900211	 1.137405	 0.459735
H	 -3.580878	 -0.166775	 1.564416
H	 -4.867876	 -0.486707	 -1.187777
H	 -4.549650	 -1.800049	 -0.072540
H	 -5.709585	 -0.556397	 0.346597

16 12 15 17 F
