%nprocshared=4
%mem=2GB
#HF/cc-pVTZ nosymm scf=tight opt=ModRedundant

Mol

0 1
O	 0.143953	 0.673640	 1.723016
C	 0.230851	 -0.185377	 0.912839
C	 1.389380	 -1.141536	 0.780812
O	 -0.695554	 -0.422406	 0.000602
C	 2.484241	 -0.910552	 1.809840
H	 1.770759	 -1.045976	 -0.229816
H	 0.986371	 -2.145780	 0.851623
H	 2.894664	 0.086705	 1.724700
H	 3.286363	 -1.624159	 1.665916
H	 2.103155	 -1.023087	 2.815989
C	 -1.852370	 0.402254	 0.000718
C	 -3.063338	 -0.501097	 -0.000437
H	 -1.831732	 1.039442	 -0.872158
H	 -1.832493	 1.038301	 0.874430
H	 -3.071944	 -1.133732	 -0.879113
H	 -3.966302	 0.097976	 -0.000483
H	 -3.072764	 -1.134834	 0.877435

2 4 11 13 F
