%nprocshared=1
%mem=2GB
#HF/6-31G* nosymm scf=tight opt=ModRedundant

Mol

0 1
H	 1.136379	 0.211822	 1.465562
C	 1.135357	 0.094285	 0.374742
C	 0.065331	 0.871482	 -0.349150
O	 1.941633	 -0.601957	 -0.151457
C	 0.646311	 1.984926	 -1.232431
H	 -0.625500	 1.268312	 0.385827
H	 -0.479008	 0.164903	 -0.974132
C	 1.314008	 3.104392	 -0.432805
H	 -0.155270	 2.399398	 -1.835499
H	 1.360901	 1.555774	 -1.931595
H	 0.607767	 3.570177	 0.247485
H	 1.698287	 3.874480	 -1.093570
H	 2.144912	 2.734916	 0.160892

6 3 2 4 F
