%nprocshared=4
%mem=2GB
#HF/cc-pVTZ nosymm scf=tight opt=ModRedundant

Mol

0 1
H	 2.614283	 2.028610	 0.296620
O	 3.358864	 1.662087	 -0.142800
C	 3.565468	 0.338079	 0.273842
C	 2.533667	 -0.637565	 -0.272227
H	 4.548038	 0.064914	 -0.086598
H	 3.593945	 0.282242	 1.360360
C	 1.097649	 -0.119849	 -0.231344
H	 2.802873	 -0.889150	 -1.293692
H	 2.601851	 -1.555052	 0.307400
C	 0.086919	 -1.138400	 -0.756527
H	 1.028413	 0.791925	 -0.815191
H	 0.838893	 0.143828	 0.792768
C	 -1.376322	 -0.700563	 -0.670045
H	 0.328351	 -1.381304	 -1.788484
H	 0.202891	 -2.060885	 -0.194350
C	 -1.756548	 0.467313	 -1.578469
H	 -2.002359	 -1.552083	 -0.922074
H	 -1.614233	 -0.446710	 0.360544
C	 -3.245310	 0.801480	 -1.530215
H	 -1.476643	 0.229922	 -2.602563
H	 -1.190186	 1.352665	 -1.305725
C	 -3.627736	 1.969487	 -2.433212
H	 -3.819321	 -0.076112	 -1.814683
H	 -3.528384	 1.030654	 -0.506296
H	 -3.386611	 1.758075	 -3.469745
H	 -4.690001	 2.178215	 -2.377243
H	 -3.098217	 2.873277	 -2.150149

8 4 3 2 F
