%nprocshared=4
%mem=2GB
#HF/cc-pVTZ nosymm scf=tight opt=ModRedundant

Mol

0 1
H	 3.029888	 -2.290564	 -2.246242
C	 2.816782	 -1.859790	 -1.275095
C	 1.552628	 -1.008485	 -1.318058
H	 2.715258	 -2.676072	 -0.567695
H	 3.679108	 -1.271948	 -0.978694
C	 1.215950	 -0.382441	 0.027187
H	 0.709722	 -1.608675	 -1.642167
H	 1.674117	 -0.221016	 -2.058133
N	 0.000002	 0.398953	 -0.040851
H	 1.069917	 -1.168698	 0.761792
H	 2.067982	 0.209452	 0.374731
C	 -1.215959	 -0.382435	 0.027143
H	 -0.000012	 1.086078	 0.683841
C	 -2.451944	 0.502410	 -0.038737
H	 -1.221867	 -1.069392	 -0.813828
H	 -1.259993	 -0.999709	 0.929424
C	 -3.752217	 -0.292550	 0.005776
H	 -2.407325	 1.093801	 -0.946480
H	 -2.431979	 1.206234	 0.790023
H	 -3.817783	 -0.982946	 -0.828547
H	 -4.612613	 0.364348	 -0.042306
H	 -3.830160	 -0.871666	 0.919868

10 6 9 12 F
