%nprocshared=1
%mem=2GB
#HF/6-31G* nosymm scf=tight 

Mol

0 1
H	 3.893188	 0.355400	 -0.101367
N	 3.092854	 -0.246221	 -0.068770
C	 1.865559	 0.531981	 0.018834
H	 3.199514	 -0.826043	 0.741946
C	 0.645745	 -0.382037	 -0.029944
H	 1.841966	 1.207024	 -0.831236
H	 1.815756	 1.155410	 0.915079
C	 -0.679275	 0.379305	 0.025956
H	 0.698998	 -0.976915	 -0.937203
H	 0.693479	 -1.083846	 0.802235
C	 -1.899857	 -0.519256	 -0.181750
H	 -0.678399	 1.161105	 -0.732092
H	 -0.768147	 0.886276	 0.985606
C	 -3.221451	 0.246339	 -0.129170
H	 -1.813909	 -1.025817	 -1.140511
H	 -1.904839	 -1.299970	 0.575954
H	 -3.261329	 1.012854	 -0.898052
H	 -4.067239	 -0.417318	 -0.280191
H	 -3.353053	 0.736308	 0.831560

6 3 5 9 F
12 8 11 15 F
1 2 3 6 F
