%nprocshared=4
%mem=2GB
#HF/cc-pVTZ nosymm scf=tight opt=ModRedundant

Mol

0 1
H	 -3.938895	 -1.215560	 0.920383
C	 -2.873596	 -1.089294	 0.957402
C	 -2.254905	 -0.795528	 2.159303
C	 -2.123966	 -1.220737	 -0.196184
H	 -2.837402	 -0.693651	 3.054299
C	 -0.885954	 -0.633421	 2.206079
H	 -2.604717	 -1.448568	 -1.127765
C	 -0.753126	 -1.058709	 -0.150967
H	 -0.390753	 -0.405768	 3.128038
C	 -0.130040	 -0.764368	 1.051380
H	 -0.169661	 -1.159835	 -1.042523
C	 1.345822	 -0.579732	 1.154635
O	 1.968286	 -0.725612	 -0.000027
O	 1.909652	 -0.327584	 2.166414
C	 3.373556	 -0.568203	 0.000011
H	 3.695416	 -0.031588	 -0.879663
H	 3.782700	 -1.565294	 -0.000152
H	 3.695405	 -0.031851	 0.879862

12 13 15 16 F
