%nprocshared=4
%mem=2GB
#HF/cc-pVTZ nosymm scf=tight opt=ModRedundant

Mol

0 1
O	 -0.694481	 1.313155	 -0.204815
C	 -0.862519	 0.151932	 -0.046791
C	 -2.171428	 -0.477048	 0.339095
O	 0.085519	 -0.757083	 -0.192238
H	 -2.467997	 -1.191667	 -0.417688
H	 -2.923379	 0.287970	 0.444097
H	 -2.053854	 -1.015120	 1.270901
C	 0.730877	 -1.265227	 0.969564
C	 -0.045470	 -2.410466	 1.585691
H	 0.869694	 -0.463793	 1.678260
H	 1.697191	 -1.598668	 0.621992
H	 0.508227	 -2.814047	 2.425925
H	 -1.009480	 -2.075676	 1.943437
H	 -0.194502	 -3.204029	 0.863443

8 4 2 1 F
