%nprocshared=1
%mem=2GB
#HF/6-31G* nosymm scf=tight 

Mol

0 1
O	 2.862325	 1.357334	 0.000267
C	 2.843464	 0.164689	 -0.000222
C	 1.546494	 -0.624492	 -0.000609
C	 4.124123	 -0.644674	 -0.000428
C	 0.291004	 0.242674	 0.000989
H	 1.557904	 -1.283758	 -0.867573
H	 1.558622	 -1.285963	 0.864672
C	 -0.994322	 -0.586602	 0.000262
H	 0.309117	 0.896430	 -0.865270
H	 0.309661	 0.894078	 0.869017
C	 -2.259874	 0.272531	 0.000494
H	 -1.004862	 -1.240012	 -0.870939
H	 -1.005220	 -1.241071	 0.870675
C	 -3.545761	 -0.543779	 -0.141437
H	 -2.202858	 0.996680	 -0.810293
H	 -2.301498	 0.850874	 0.921788
C	 -4.805576	 0.321409	 -0.140603
H	 -3.505838	 -1.121415	 -1.062614
H	 -3.604630	 -1.266989	 0.669341
H	 -4.792750	 1.033227	 -0.961151
H	 -5.700045	 -0.285300	 -0.243217
H	 -4.892873	 0.885747	 0.783544
H	 4.165367	 -1.288615	 -0.874074
H	 4.976217	 0.020734	 -0.001915
H	 4.166763	 -1.286207	 0.874930

9 5 8 12 F
15 11 14 18 F
1 2 3 6 F
9 5 3 6 F
