%nprocshared=4
%mem=2GB
#HF/cc-pVTZ nosymm scf=tight opt=ModRedundant

Mol

0 1
H	 2.239939	 -3.436249	 -1.286393
C	 2.354848	 -2.528995	 -0.705191
C	 1.097634	 -1.669306	 -0.775899
H	 2.574385	 -2.818243	 0.317148
H	 3.218877	 -1.997849	 -1.090359
C	 1.215950	 -0.382441	 0.027187
H	 0.242753	 -2.228206	 -0.411789
H	 0.887232	 -1.424277	 -1.814296
N	 0.000002	 0.398953	 -0.040851
H	 1.401453	 -0.626035	 1.069022
H	 2.088311	 0.180811	 -0.317510
C	 -1.215959	 -0.382435	 0.027143
H	 -0.000012	 1.086078	 0.683841
C	 -2.451944	 0.502410	 -0.038737
H	 -1.221867	 -1.069392	 -0.813828
H	 -1.259993	 -0.999709	 0.929424
C	 -3.752217	 -0.292550	 0.005776
H	 -2.407325	 1.093801	 -0.946480
H	 -2.431979	 1.206234	 0.790023
H	 -3.817783	 -0.982946	 -0.828547
H	 -4.612613	 0.364348	 -0.042306
H	 -3.830160	 -0.871666	 0.919868

10 6 9 12 F
