%nprocshared=4
%mem=2GB
#HF/cc-pVTZ nosymm scf=tight opt=ModRedundant

Mol

0 1
H	 -4.492358	 0.498540	 -4.115497
C	 -3.841405	 1.251715	 -3.650876
C	 -3.242014	 0.844435	 -2.332260
O	 -3.666878	 2.292296	 -4.183829
C	 -3.355277	 1.938476	 -1.266464
H	 -3.711046	 -0.076307	 -2.010426
H	 -2.191013	 0.636266	 -2.520317
C	 -4.789956	 2.214817	 -0.822038
H	 -2.762496	 1.643072	 -0.407576
H	 -2.906268	 2.854690	 -1.642144
C	 -5.641798	 2.853761	 -1.915610
H	 -4.772558	 2.864645	 0.048897
H	 -5.259191	 1.289893	 -0.496830
C	 -6.900381	 3.527547	 -1.372262
H	 -5.037082	 3.575553	 -2.455684
H	 -5.927719	 2.092630	 -2.638262
C	 -7.827821	 4.111512	 -2.439380
H	 -6.614724	 4.314215	 -0.677756
H	 -7.459838	 2.800038	 -0.790848
C	 -7.244121	 5.287623	 -3.218572
H	 -8.743922	 4.435874	 -1.955707
H	 -8.114795	 3.326049	 -3.133643
H	 -6.941812	 6.086551	 -2.549005
H	 -6.377675	 4.999038	 -3.801388
H	 -7.976863	 5.694192	 -3.906144

12 8 11 14 F
