%nprocshared=4
%mem=2GB
#HF/6-31G* nosymm scf=tight opt=ModRedundant

Mol

0 1
O	 -0.988096	 -1.408613	 0.050699
C	 -0.676749	 -0.249230	 -0.009274
C	 -1.746085	 0.827156	 -0.009539
N	 0.623947	 0.147590	 -0.102813
H	 -1.701500	 1.431508	 -0.908902
H	 -2.703425	 0.330732	 0.036390
H	 -1.647323	 1.487769	 0.845106
C	 1.290645	 0.629594	 1.090947
C	 1.290091	 0.452513	 -1.350018
H	 2.318508	 0.283909	 1.095102
H	 0.783423	 0.252508	 1.961850
H	 1.294694	 1.716753	 1.129536
H	 2.341550	 0.207051	 -1.259344
H	 0.889199	 -0.127042	 -2.166312
H	 1.212872	 1.508038	 -1.604413

8 4 2 3 F
