%nprocshared=4
%mem=2GB
#HF/cc-pVTZ nosymm scf=tight opt=ModRedundant

Mol

0 1
H	 -3.498985	 1.253143	 -1.010443
O	 -3.458596	 0.315260	 -0.960865
C	 -3.176635	 -0.080824	 0.355601
C	 -1.763371	 0.265266	 0.799691
H	 -3.321825	 -1.153438	 0.379502
H	 -3.895468	 0.357385	 1.043382
C	 -1.017273	 1.177600	 -0.169487
H	 -1.806068	 0.730517	 1.783349
H	 -1.212901	 -0.663703	 0.927704
C	 -0.698893	 0.506097	 -1.502787
H	 -0.098459	 1.517721	 0.295283
H	 -1.615554	 2.067857	 -0.348396
C	 -1.901770	 -0.214893	 -2.108023
H	 -0.329115	 1.256104	 -2.195349
H	 0.111355	 -0.206669	 -1.363791
C	 -2.383128	 -1.435602	 -1.321887
H	 -1.664261	 -0.516024	 -3.125745
H	 -2.724953	 0.489981	 -2.186395
C	 -1.399051	 -2.602508	 -1.289202
H	 -3.315046	 -1.779775	 -1.759892
H	 -2.620200	 -1.135961	 -0.304325
H	 -1.138708	 -2.920137	 -2.293896
H	 -1.830091	 -3.454575	 -0.775951
H	 -0.480652	 -2.344772	 -0.775663

7 4 3 2 F
