%nprocshared=4
%mem=2GB
#HF/cc-pVTZ nosymm scf=tight opt=ModRedundant

Mol

0 1
O	 -0.694481	 1.313155	 -0.204815
C	 -0.862519	 0.151932	 -0.046791
C	 -2.171428	 -0.477048	 0.339095
O	 0.085519	 -0.757083	 -0.192238
H	 -2.467997	 -1.191667	 -0.417688
H	 -2.923379	 0.287970	 0.444097
H	 -2.053854	 -1.015120	 1.270901
C	 0.282663	 -1.712514	 0.843507
C	 -0.648945	 -2.897629	 0.696855
H	 0.152320	 -1.231490	 1.800295
H	 1.313067	 -2.018338	 0.741083
H	 -0.424659	 -3.632684	 1.461605
H	 -1.680817	 -2.594377	 0.809374
H	 -0.523437	 -3.365377	 -0.272192

8 4 2 1 F
