%nprocshared=4
%mem=2GB
#HF/cc-pVTZ nosymm scf=tight opt=ModRedundant

Mol

0 1
H	 1.237618	 -2.010929	 -2.418573
C	 1.249382	 -1.133940	 -1.780187
C	 0.061802	 -1.160746	 -0.827591
H	 1.207629	 -0.251633	 -2.406854
H	 2.196506	 -1.124667	 -1.255208
N	 0.000297	 0.000045	 0.046090
H	 -0.841966	 -1.190180	 -1.420427
H	 0.072470	 -2.087184	 -0.246620
C	 -1.359159	 0.315706	 0.454404
C	 0.908234	 -0.107671	 1.176829
C	 -2.416729	 -0.286720	 -0.460525
H	 -1.478729	 1.390261	 0.442008
H	 -1.539692	 0.003361	 1.486761
C	 1.377976	 1.242491	 1.701085
H	 1.779228	 -0.666582	 0.863706
H	 0.455056	 -0.683801	 1.988381
H	 -2.285276	 0.073129	 -1.473515
H	 -2.371743	 -1.368476	 -0.483209
H	 -3.408658	 -0.007405	 -0.121593
H	 1.889563	 1.790818	 0.919725
H	 0.556776	 1.854055	 2.053782
H	 2.063226	 1.104629	 2.530687

3 6 9 11 F
