%nprocshared=4
%mem=2GB
#HF/cc-pVTZ nosymm scf=tight opt=ModRedundant

Mol

0 1
H	 2.927771	 1.465131	 -0.935266
C	 2.214341	 1.287668	 -0.141034
C	 1.322304	 0.099773	 -0.484271
H	 2.771520	 1.111321	 0.772106
H	 1.632252	 2.192783	 -0.009586
C	 0.308557	 -0.162619	 0.622645
H	 1.923852	 -0.789271	 -0.627363
H	 0.791244	 0.287281	 -1.409340
N	 -1.069352	 -0.004081	 0.085342
H	 0.371632	 -1.172932	 0.991288
H	 0.400391	 0.548875	 1.426218
O	 -1.584901	 -0.965470	 -0.377818
O	 -1.548033	 1.079343	 0.130056

7 3 6 9 F
