%nprocshared=1
%mem=2GB
#HF/6-31G* nosymm scf=tight opt=ModRedundant

Mol

0 1
H	 2.947557	 5.276195	 -1.538646
C	 1.972175	 5.071148	 -1.968888
C	 1.418167	 3.736930	 -1.470778
H	 1.313000	 5.891176	 -1.699845
H	 2.080290	 5.073940	 -3.050139
C	 0.045192	 3.413430	 -2.064159
H	 1.348058	 3.759847	 -0.388114
H	 2.116277	 2.940663	 -1.724337
C	 -0.527130	 2.074722	 -1.597710
H	 -0.654713	 4.202489	 -1.812839
H	 0.122943	 3.392532	 -3.148852
C	 -0.974344	 2.056836	 -0.143433
H	 -1.402288	 1.821450	 -2.194136
H	 0.184507	 1.268920	 -1.763339
C	 -1.181045	 0.701995	 0.511084
O	 -1.175213	 3.066615	 0.461881
C	 -2.285934	 -0.139295	 -0.145128
H	 -1.418783	 0.885994	 1.551920
H	 -0.241541	 0.153605	 0.475247
C	 -3.651768	 0.085446	 0.506485
H	 -2.346596	 0.110469	 -1.202272
H	 -2.034737	 -1.195320	 -0.088721
C	 -4.759797	 -0.746382	 -0.137905
H	 -3.908762	 1.140117	 0.445781
H	 -3.588286	 -0.154158	 1.565709
H	 -4.868882	 -0.505166	 -1.191300
H	 -4.548009	 -1.809175	 -0.062213
H	 -5.715422	 -0.564821	 0.343442

12 15 17 21 F
