%nprocshared=1
%mem=2GB
#HF/6-31G* nosymm scf=tight 

Mol

0 1
H	 -4.607224	 -3.274721	 -3.113163
O	 -5.055116	 -4.022880	 -2.746116
C	 -4.125078	 -4.874641	 -2.126774
C	 -3.582288	 -4.319413	 -0.814590
H	 -4.652803	 -5.801299	 -1.941073
H	 -3.304143	 -5.100885	 -2.806230
C	 -2.774997	 -3.028485	 -0.971607
H	 -4.417804	 -4.147712	 -0.140945
H	 -2.956855	 -5.083554	 -0.356018
C	 -2.198640	 -2.526400	 0.355246
H	 -3.409913	 -2.260773	 -1.405042
H	 -1.959143	 -3.194941	 -1.675180
C	 -1.309753	 -1.282496	 0.241564
H	 -3.014911	 -2.323445	 1.046158
H	 -1.614427	 -3.327114	 0.803859
C	 -2.037799	 -0.007733	 -0.193645
H	 -0.846644	 -1.103805	 1.209766
H	 -0.493702	 -1.485911	 -0.450188
C	 -3.489788	 0.042957	 0.286558
H	 -2.017067	 0.064384	 -1.280144
H	 -1.513726	 0.868678	 0.179924
C	 -4.216917	 1.317354	 -0.141063
H	 -4.025645	 -0.823308	 -0.095450
H	 -3.513059	 -0.038752	 1.371301
H	 -4.239342	 1.411634	 -1.223113
H	 -5.243387	 1.322503	 0.212445
H	 -3.726170	 2.201406	 0.256408

14 10 7 4 F
14 10 13 16 F
10 7 4 8 F
8 4 3 2 F
20 16 19 22 F
4 3 2 1 F
