%nprocshared=1
%mem=2GB
#HF/6-31G* nosymm scf=tight opt=ModRedundant

Mol

0 1
O	 -1.983794	 -3.257841	 0.518266
C	 -1.252383	 -3.381306	 -0.416736
C	 -0.435540	 -2.206907	 -0.926502
C	 -1.076827	 -4.710108	 -1.117335
C	 0.802119	 -1.976128	 -0.044412
H	 -1.069875	 -1.327671	 -0.897081
H	 -0.132048	 -2.370815	 -1.956577
C	 1.631333	 -0.777471	 -0.511575
H	 0.467619	 -1.834156	 0.977027
H	 1.427101	 -2.867823	 -0.049497
C	 2.915987	 -0.544314	 0.291766
H	 1.016307	 0.119769	 -0.473784
H	 1.897402	 -0.921053	 -1.556773
C	 3.373361	 0.914346	 0.347591
H	 3.708709	 -1.142521	 -0.150311
H	 2.780642	 -0.921148	 1.303579
H	 3.506512	 1.320010	 -0.651625
H	 4.322697	 0.999599	 0.867103
H	 2.660624	 1.545032	 0.868198
H	 -1.465649	 -4.643269	 -2.130061
H	 -1.606062	 -5.484723	 -0.580058
H	 -0.024490	 -4.967737	 -1.194914

12 8 11 15 F
