%nprocshared=1
%mem=2GB
#HF/6-31G* nosymm scf=tight opt=ModRedundant

Mol

0 1
H	 -1.310591	 1.296991	 -2.973230
O	 -1.661867	 0.789011	 -2.255630
C	 -0.871036	 0.977020	 -1.112727
C	 0.444260	 0.226350	 -1.222994
H	 -0.676667	 2.029868	 -0.928093
H	 -1.435481	 0.594678	 -0.273879
O	 1.171513	 0.459272	 -0.058250
H	 0.999953	 0.570723	 -2.097404
H	 0.248511	 -0.835637	 -1.358827
C	 2.397842	 -0.198080	 -0.002151
H	 2.508049	 -0.905315	 -0.822092
H	 3.173794	 0.550865	 -0.078850
H	 2.517602	 -0.735921	 0.936026

4 7 10 13 F
