%nprocshared=4
%mem=2GB
#HF/6-31G* nosymm scf=tight opt=ModRedundant

Mol

0 1
O	 -2.218281	 -2.747954	 0.745256
C	 -1.483196	 -3.071919	 -0.137428
C	 -0.550844	 -2.062497	 -0.784029
C	 -1.418096	 -4.499434	 -0.632743
C	 0.685253	 -1.815942	 0.095982
H	 -1.101179	 -1.135497	 -0.902797
H	 -0.243624	 -2.402143	 -1.769058
C	 1.631333	 -0.777471	 -0.511575
H	 0.345297	 -1.496411	 1.074611
H	 1.224639	 -2.750811	 0.240308
C	 2.915987	 -0.544314	 0.291766
H	 1.101727	 0.166774	 -0.624025
H	 1.903486	 -1.095980	 -1.515732
C	 3.373361	 0.914346	 0.347591
H	 3.708709	 -1.142521	 -0.150311
H	 2.780642	 -0.921148	 1.303579
H	 3.506512	 1.320010	 -0.651625
H	 4.322697	 0.999599	 0.867103
H	 2.660624	 1.545032	 0.868198
H	 -1.778957	 -4.547555	 -1.656817
H	 -2.027530	 -5.136584	 -0.007112
H	 -0.392930	 -4.858346	 -0.637476

12 8 11 15 F
