%nprocshared=4
%mem=2GB
#HF/6-31G* nosymm scf=tight opt=ModRedundant

Mol

0 1
O	 1.593087	 0.302948	 0.306385
C	 2.701189	 0.057885	 -0.047330
C	 3.554538	 0.929822	 -0.936323
O	 3.347903	 -1.046386	 0.304773
C	 2.856695	 2.220905	 -1.358502
H	 4.478131	 1.122982	 -0.400733
H	 3.832509	 0.334243	 -1.802184
C	 3.668567	 3.067112	 -2.345058
H	 2.623769	 2.808013	 -0.475231
H	 1.903263	 1.967144	 -1.809052
C	 4.963601	 3.655154	 -1.777428
H	 3.037126	 3.883675	 -2.687449
H	 3.898486	 2.473188	 -3.228461
C	 5.679983	 4.579341	 -2.764178
H	 4.736541	 4.207962	 -0.867118
H	 5.642698	 2.856265	 -1.488333
C	 6.978153	 5.168669	 -2.209580
H	 5.011060	 5.389851	 -3.048517
H	 5.897755	 4.030107	 -3.678845
C	 7.685372	 6.093412	 -3.199727
H	 6.762504	 5.717005	 -1.294995
H	 7.649809	 4.360059	 -1.928850
H	 8.601556	 6.495089	 -2.777981
H	 7.051899	 6.932358	 -3.473730
H	 7.945440	 5.565027	 -4.112660
C	 4.728119	 -1.109107	 -0.004993
H	 4.882018	 -1.033965	 -1.071845
H	 5.068212	 -2.067527	 0.355250
H	 5.265056	 -0.311663	 0.488280

1 2 4 26 F
