%nprocshared=1
%mem=2GB
#HF/6-31G* nosymm scf=tight 

Mol

0 1
H	 -2.493912	 -2.553549	 0.306048
C	 -2.865315	 -1.680068	 -0.244146
C	 -2.689389	 -0.359936	 0.462192
O	 -3.362673	 -1.815730	 -1.314651
C	 -1.244692	 -0.128803	 0.926609
H	 -3.026541	 0.429611	 -0.199360
H	 -3.347120	 -0.371623	 1.330471
C	 -0.252658	 0.041456	 -0.226725
H	 -1.222933	 0.756707	 1.554846
H	 -0.932088	 -0.957194	 1.560490
C	 1.180775	 0.282413	 0.250794
H	 -0.572165	 0.873265	 -0.851110
H	 -0.274412	 -0.839580	 -0.865351
C	 2.148627	 -0.814315	 -0.201312
H	 1.516199	 1.249228	 -0.115937
H	 1.192670	 0.346017	 1.338083
C	 3.580890	 -0.659131	 0.322722
H	 2.166869	 -0.852443	 -1.289387
H	 1.762857	 -1.776509	 0.128956
C	 4.324889	 0.564933	 -0.213704
H	 4.142010	 -1.551473	 0.056605
H	 3.564836	 -0.624694	 1.410140
H	 4.342616	 0.565491	 -1.300421
H	 3.866655	 1.493402	 0.110242
H	 5.353900	 0.572371	 0.132816

6 3 5 8 F
6 3 2 4 F
3 5 8 12 F
8 11 14 18 F
20 17 14 18 F
