%nprocshared=1
%mem=2GB
#HF/6-31G* nosymm scf=tight 

Mol

0 1
O	 1.600544	 0.051366	 -0.496328
C	 2.701189	 0.057885	 -0.047330
C	 3.544165	 1.285712	 0.198877
O	 3.347903	 -1.046386	 0.304773
C	 2.836660	 2.584951	 -0.179978
H	 3.832318	 1.269442	 1.244772
H	 4.465565	 1.163307	 -0.364804
C	 3.716089	 3.831562	 -0.034862
H	 1.940691	 2.694576	 0.423627
H	 2.497615	 2.507093	 -1.207309
C	 4.118130	 4.173968	 1.402578
H	 3.174877	 4.676259	 -0.454745
H	 4.612321	 3.715754	 -0.642618
C	 4.901056	 5.484496	 1.505255
H	 3.222381	 4.241182	 2.018154
H	 4.719371	 3.371881	 1.824640
C	 5.312634	 5.834121	 2.936512
H	 4.300360	 6.295371	 1.096745
H	 5.791378	 5.421890	 0.881471
C	 6.090707	 7.146145	 3.030820
H	 4.424218	 5.896089	 3.561427
H	 5.916790	 5.026729	 3.345038
H	 6.368200	 7.366501	 4.057001
H	 5.499798	 7.979727	 2.661816
H	 7.003523	 7.103781	 2.443243
C	 4.728119	 -1.109107	 -0.004993
H	 4.882018	 -1.033965	 -1.071845
H	 5.068212	 -2.067527	 0.355250
H	 5.265056	 -0.311663	 0.488280

21 17 14 11 F
17 14 11 15 F
15 11 8 5 F
6 3 5 9 F
11 8 5 9 F
2 4 26 27 F
6 3 2 1 F
