%nprocshared=1
%mem=2GB
#HF/6-31G* nosymm scf=tight 

Mol

0 1
H	 1.397971	 3.140649	 4.559299
C	 1.372452	 2.575811	 3.644372
C	 0.609648	 3.023871	 2.576420
C	 2.102213	 1.402434	 3.536824
H	 0.044155	 3.934039	 2.661148
C	 0.577336	 2.297060	 1.400332
H	 2.692946	 1.056669	 4.365731
C	 2.071376	 0.673245	 2.360513
H	 -0.007343	 2.628603	 0.563730
C	 1.307845	 1.119631	 1.288355
H	 2.634540	 -0.235319	 2.272887
C	 1.239129	 0.373821	 0.000060
O	 1.970282	 -0.730723	 0.000018
O	 0.596343	 0.725493	 -0.939095
C	 3.377318	 -0.566646	 -0.000065
H	 3.695437	 -0.028981	 -0.881264
H	 3.789299	 -1.563704	 0.000236
H	 3.695516	 -0.028316	 0.880770

12 13 15 16 F
13 12 10 6 F
