%nprocshared=4
%mem=2GB
#HF/cc-pVTZ nosymm scf=tight opt=ModRedundant

Mol

0 1
H	 -2.626282	 0.068334	 -0.414218
C	 -1.640388	 -0.377488	 -0.429276
C	 -0.600949	 0.658697	 -0.000002
H	 -1.440208	 -0.733543	 -1.430893
H	 -1.637984	 -1.227339	 0.239929
C	 0.763408	 0.112229	 -0.000006
H	 -0.613048	 1.513191	 -0.663799
H	 -0.809711	 1.022178	 0.997613
N	 1.806008	 -0.317179	 0.000007

7 3 6 9 F
