%nprocshared=1
%mem=2GB
#HF/6-31G* nosymm scf=tight opt=ModRedundant

Mol

0 1
H	 2.591676	 2.013956	 0.335017
O	 3.341076	 1.666752	 -0.126416
C	 3.569581	 0.339145	 0.272707
C	 4.601933	 -0.378616	 -0.589729
H	 3.922564	 0.395597	 1.294417
H	 2.635584	 -0.221480	 0.284041
C	 4.178734	 -0.554564	 -2.050144
H	 5.535125	 0.176792	 -0.544553
H	 4.792387	 -1.355421	 -0.148200
C	 5.211893	 -1.325757	 -2.876379
H	 4.015189	 0.423142	 -2.494791
H	 3.224868	 -1.080780	 -2.089832
C	 4.798840	 -1.604335	 -4.326249
H	 6.154575	 -0.781567	 -2.869010
H	 5.407577	 -2.276746	 -2.385433
C	 4.673854	 -0.360921	 -5.210997
H	 5.534918	 -2.272188	 -4.768943
H	 3.855449	 -2.148214	 -4.333012
C	 4.363730	 -0.697055	 -6.671227
H	 5.601224	 0.208151	 -5.163536
H	 3.894656	 0.293888	 -4.828401
C	 4.232103	 0.542622	 -7.555275
H	 5.146908	 -1.340314	 -7.066622
H	 3.442518	 -1.274025	 -6.719792
H	 5.149562	 1.124421	 -7.553786
H	 4.014390	 0.271506	 -8.583737
H	 3.431436	 1.189445	 -7.207545

4 3 2 1 F
