%nprocshared=4
%mem=2GB
#HF/cc-pVTZ nosymm scf=tight opt=ModRedundant

Mol

0 1
H	 -3.436473	 1.252944	 -1.023892
O	 -3.458596	 0.315260	 -0.960865
C	 -3.176635	 -0.080824	 0.355601
C	 -1.763371	 0.265266	 0.799691
H	 -3.321825	 -1.153438	 0.379502
H	 -3.895468	 0.357385	 1.043382
C	 -0.673390	 -0.426948	 -0.013392
H	 -1.631049	 1.344913	 0.747560
H	 -1.664587	 -0.001624	 1.849167
C	 0.737842	 -0.043159	 0.423759
H	 -0.806103	 -0.190518	 -1.063345
H	 -0.797221	 -1.503753	 0.074146
C	 1.823817	 -0.780187	 -0.357583
H	 0.862296	 1.029422	 0.309868
H	 0.856935	 -0.253141	 1.484693
C	 1.885927	 -2.287983	 -0.107498
H	 2.791508	 -0.339708	 -0.128667
H	 1.660368	 -0.614220	 -1.418884
C	 2.301700	 -2.683802	 1.307283
H	 2.589451	 -2.723394	 -0.810525
H	 0.919075	 -2.729234	 -0.335347
H	 3.263257	 -2.251577	 1.565482
H	 2.390786	 -3.760683	 1.394640
H	 1.582490	 -2.356408	 2.048334

13 10 7 11 F
