%nprocshared=1
%mem=2GB
#HF/6-31G* nosymm scf=tight 

Mol

0 1
H	 -3.261111	 -0.295142	 1.469456
C	 -3.306842	 -0.277400	 0.373456
C	 -2.660244	 0.921717	 -0.272021
O	 -3.838538	 -1.161155	 -0.216482
C	 -3.538044	 1.546497	 -1.365352
H	 -2.418771	 1.639138	 0.503676
H	 -1.724994	 0.581185	 -0.714741
C	 -4.822601	 2.182206	 -0.827685
H	 -2.954110	 2.298960	 -1.886990
H	 -3.785999	 0.788406	 -2.106684
C	 -5.681709	 2.810774	 -1.926616
H	 -4.563416	 2.939988	 -0.091181
H	 -5.409816	 1.435316	 -0.296768
C	 -6.957624	 3.459655	 -1.383527
H	 -5.087046	 3.548147	 -2.459897
H	 -5.949465	 2.047329	 -2.655891
C	 -7.891367	 4.030826	 -2.456821
H	 -6.690064	 4.249621	 -0.683484
H	 -7.507066	 2.717977	 -0.807560
C	 -7.318513	 5.219429	 -3.230566
H	 -8.816144	 4.341315	 -1.976890
H	 -8.162793	 3.241739	 -3.155098
H	 -7.022933	 6.018431	 -2.555661
H	 -6.448369	 4.942023	 -3.816117
H	 -8.056441	 5.623678	 -3.916889

6 3 5 8 F
3 5 8 12 F
12 8 11 14 F
8 11 14 18 F
20 17 14 18 F
