%nprocshared=1
%mem=2GB
#HF/6-31G* nosymm scf=tight 

Mol

0 1
O	 1.619439	 1.023653	 0.764598
C	 1.705091	 0.115954	 0.001797
C	 0.705619	 -0.221665	 -1.077525
O	 2.721346	 -0.737485	 -0.000216
C	 -0.484770	 0.731601	 -1.121133
H	 1.239577	 -0.228370	 -2.023864
H	 0.383678	 -1.246339	 -0.912855
C	 -1.480220	 0.367020	 -2.223504
H	 -0.125854	 1.745319	 -1.268591
H	 -0.983319	 0.725515	 -0.156912
C	 -2.680364	 1.313633	 -2.282128
H	 -0.973416	 0.371354	 -3.187417
H	 -1.834636	 -0.651380	 -2.071413
C	 -3.675239	 0.948128	 -3.382981
H	 -2.328148	 2.331093	 -2.436594
H	 -3.188184	 1.309736	 -1.320233
H	 -3.205244	 0.976990	 -4.362004
H	 -4.514226	 1.636822	 -3.398897
H	 -4.071791	 -0.052745	 -3.236999
C	 4.024888	 -0.184556	 -0.001949
H	 4.179030	 0.422472	 -0.882452
H	 4.701782	 -1.024608	 -0.003642
H	 4.181981	 0.421185	 0.878906

15 11 8 12 F
9 5 8 12 F
1 2 3 6 F
9 5 3 6 F
