%nprocshared=1
%mem=2GB
#HF/6-31G* nosymm scf=tight 

Mol

0 1
O	 0.625848	 1.349995	 -0.000749
C	 0.486307	 0.169203	 0.000779
C	 1.608116	 -0.841643	 0.000302
O	 -0.698257	 -0.426125	 0.001050
C	 2.990107	 -0.200498	 -0.000684
H	 1.468623	 -1.481519	 -0.865924
H	 1.469683	 -1.481289	 0.866878
H	 3.129736	 0.423364	 -0.875135
H	 3.757882	 -0.966877	 -0.001197
H	 3.130964	 0.423383	 0.873533
C	 -0.727671	 -1.832670	 -0.218419
C	 -2.176578	 -2.269304	 -0.170166
H	 -0.137410	 -2.320975	 0.544951
H	 -0.276441	 -2.049486	 -1.177050
H	 -2.615505	 -2.040302	 0.794230
H	 -2.245398	 -3.339950	 -0.333351
H	 -2.755385	 -1.767423	 -0.937209

2 4 11 13 F
4 2 3 6 F
