%nprocshared=4
%mem=2GB
#HF/6-31G* nosymm scf=tight opt=ModRedundant

Mol

0 1
O	 -0.314731	 0.305757	 0.868785
C	 0.486307	 0.169203	 0.000779
C	 1.608116	 -0.841643	 0.000302
O	 0.500004	 0.904193	 -1.102494
C	 2.990107	 -0.200498	 -0.000684
H	 1.468623	 -1.481519	 -0.865924
H	 1.469683	 -1.481289	 0.866878
H	 3.129736	 0.423364	 -0.875135
H	 3.757882	 -0.966877	 -0.001197
H	 3.130964	 0.423383	 0.873533
C	 -0.504554	 1.903947	 -1.239440
C	 -0.275877	 2.598451	 -2.565216
H	 -0.431414	 2.593203	 -0.409282
H	 -1.477724	 1.434148	 -1.196779
H	 0.704998	 3.059111	 -2.594087
H	 -1.023018	 3.371908	 -2.710795
H	 -0.347078	 1.893801	 -3.385981

4 2 3 6 F
