%nprocshared=1
%mem=2GB
#HF/6-31G* nosymm scf=tight opt=ModRedundant

Mol

0 1
O	 0.606207	 -0.181888	 0.343649
C	 1.705091	 0.115954	 0.001797
C	 2.136937	 1.481293	 -0.474885
O	 2.721346	 -0.737485	 -0.000216
C	 1.005003	 2.504099	 -0.490263
H	 2.952316	 1.805954	 0.165790
H	 2.569668	 1.357986	 -1.463955
C	 1.470384	 3.877587	 -0.976074
H	 0.585522	 2.588220	 0.507308
H	 0.202982	 2.140417	 -1.124932
C	 0.347595	 4.916223	 -0.996992
H	 2.277048	 4.235208	 -0.337797
H	 1.892148	 3.786161	 -1.975893
C	 0.812922	 6.288044	 -1.483644
H	 -0.073089	 5.010612	 0.001635
H	 -0.458586	 4.560818	 -1.634877
H	 1.596186	 6.686122	 -0.844703
H	 -0.004944	 7.001859	 -1.487415
H	 1.208079	 6.232646	 -2.494135
C	 4.024888	 -0.184556	 -0.001949
H	 4.179030	 0.422472	 -0.882452
H	 4.701782	 -1.024608	 -0.003642
H	 4.181981	 0.421185	 0.878906

1 2 4 20 F
