%nprocshared=4
%mem=2GB
#HF/cc-pVTZ nosymm scf=tight opt=ModRedundant

Mol

0 1
O	 0.606503	 1.327724	 -0.223881
C	 0.485107	 0.171416	 -0.000134
C	 1.606966	 -0.836201	 0.000174
O	 -0.673305	 -0.397548	 0.284378
C	 2.988788	 -0.202529	 -0.000115
H	 1.465110	 -1.474645	 -0.864821
H	 1.465209	 -1.474077	 0.865596
H	 3.131767	 0.419673	 -0.873407
H	 3.750876	 -0.972315	 0.000098
H	 3.131883	 0.420264	 0.872742
C	 -1.827192	 0.430384	 0.321257
C	 -3.011706	 -0.443409	 0.661701
H	 -1.949812	 0.908045	 -0.640591
H	 -1.681415	 1.206564	 1.059239
H	 -3.147158	 -1.217230	 -0.083433
H	 -3.911809	 0.158861	 0.698010
H	 -2.877286	 -0.916964	 1.626091

4 2 3 6 F
