%nprocshared=1
%mem=2GB
#HF/6-31G* nosymm scf=tight opt=ModRedundant

Mol

0 1
O	 0.675698	 0.320887	 -4.773302
C	 0.115212	 0.676541	 -3.781435
C	 0.181765	 -0.151586	 -2.510183
C	 -0.657373	 1.975652	 -3.728536
C	 1.517530	 0.068637	 -1.781915
H	 0.091138	 -1.194917	 -2.792232
H	 -0.645683	 0.093642	 -1.850472
C	 1.631333	 -0.777471	 -0.511575
H	 2.320988	 -0.166771	 -2.470699
H	 1.624169	 1.120755	 -1.522258
C	 2.915987	 -0.544314	 0.291766
H	 1.559036	 -1.830958	 -0.775516
H	 0.778288	 -0.564391	 0.129331
C	 3.373361	 0.914346	 0.347591
H	 3.708709	 -1.142521	 -0.150311
H	 2.780642	 -0.921148	 1.303579
H	 3.506512	 1.320010	 -0.651625
H	 4.322697	 0.999599	 0.867103
H	 2.660624	 1.545032	 0.868198
H	 -1.715045	 1.766317	 -3.591523
H	 -0.516825	 2.527702	 -4.647379
H	 -0.338332	 2.578530	 -2.883222

12 8 11 15 F
