%nprocshared=1
%mem=2GB
#HF/6-31G* nosymm scf=tight opt=ModRedundant

Mol

0 1
O	 0.441212	 0.830774	 -4.546312
C	 -0.115601	 0.985928	 -3.502128
C	 0.066461	 -0.007175	 -2.367709
C	 -0.998642	 2.186326	 -3.243944
C	 1.400664	 0.228823	 -1.641520
H	 0.059834	 -1.002742	 -2.797948
H	 -0.757260	 0.062314	 -1.662953
C	 1.631333	 -0.777471	 -0.511575
H	 2.198666	 0.170974	 -2.373115
H	 1.421707	 1.237767	 -1.232453
C	 2.915987	 -0.544314	 0.291766
H	 1.644456	 -1.783954	 -0.925757
H	 0.784372	 -0.739318	 0.170371
C	 3.373361	 0.914346	 0.347591
H	 3.708709	 -1.142521	 -0.150311
H	 2.780642	 -0.921148	 1.303579
H	 3.506512	 1.320010	 -0.651625
H	 4.322697	 0.999599	 0.867103
H	 2.660624	 1.545032	 0.868198
H	 -2.028354	 1.862032	 -3.118279
H	 -0.938293	 2.875841	 -4.074433
H	 -0.706772	 2.687921	 -2.325784

12 8 11 15 F
