%nprocshared=4
%mem=2GB
#HF/6-31G* nosymm scf=tight opt=ModRedundant

Mol

0 1
H	 -2.783374	 -0.548071	 1.014603
C	 -2.702455	 -0.200716	 -0.013472
O	 -1.373620	 -0.049991	 -0.396637
H	 -3.149040	 -0.936654	 -0.667764
H	 -3.254752	 0.733495	 -0.106460
C	 -0.664241	 0.880051	 0.359043
C	 0.782885	 0.876356	 -0.074569
H	 -1.078794	 1.878719	 0.215856
H	 -0.721490	 0.641881	 1.419233
O	 1.392611	 -0.295398	 0.366430
H	 0.832532	 0.954168	 -1.158768
H	 1.286054	 1.746740	 0.348451
C	 2.706965	 -0.449871	 -0.062409
H	 2.756559	 -0.644779	 -1.131878
H	 3.305899	 0.433456	 0.155466
H	 3.125548	 -1.294566	 0.467107

7 10 13 14 F
