%nprocshared=1
%mem=2GB
#HF/6-31G* nosymm scf=tight opt=ModRedundant

Mol

0 1
O	 3.225979	 0.970355	 -0.599647
C	 2.701189	 0.057885	 -0.047330
C	 1.245376	 -0.013843	 0.345420
O	 3.347903	 -1.046386	 0.304773
C	 0.455112	 1.231400	 -0.050772
H	 0.838542	 -0.913825	 -0.103701
H	 1.208210	 -0.175333	 1.419774
C	 -0.998893	 1.219485	 0.433193
H	 0.482531	 1.345121	 -1.130325
H	 0.957290	 2.103070	 0.354729
C	 -1.883438	 0.145884	 -0.207175
H	 -1.431207	 2.195402	 0.224832
H	 -1.019646	 1.105716	 1.516076
C	 -1.149902	 -1.179763	 -0.420683
H	 -2.754656	 -0.022942	 0.423932
H	 -2.262945	 0.495264	 -1.164714
C	 -2.022581	 -2.258479	 -1.064837
H	 -0.778114	 -1.543302	 0.535794
H	 -0.272597	 -1.009720	 -1.042873
C	 -1.283710	 -3.580309	 -1.271076
H	 -2.900223	 -2.428930	 -0.444891
H	 -2.391609	 -1.898627	 -2.023015
H	 -1.928107	 -4.324321	 -1.729123
H	 -0.931928	 -3.984371	 -0.325995
H	 -0.419079	 -3.449754	 -1.915779
C	 4.728119	 -1.109107	 -0.004993
H	 4.882018	 -1.033965	 -1.071845
H	 5.068212	 -2.067527	 0.355250
H	 5.265056	 -0.311663	 0.488280

15 11 8 5 F
