%nprocshared=4
%mem=2GB
#HF/cc-pVTZ nosymm scf=tight opt=ModRedundant

Mol

0 1
O	 0.623971	 1.347241	 -0.000777
C	 0.485107	 0.171416	 -0.000134
C	 1.606966	 -0.836201	 0.000174
O	 -0.695554	 -0.422406	 0.000602
C	 2.988788	 -0.202529	 -0.000115
H	 1.465110	 -1.474645	 -0.864821
H	 1.465209	 -1.474077	 0.865596
H	 3.131767	 0.419673	 -0.873407
H	 3.750876	 -0.972315	 0.000098
H	 3.131883	 0.420264	 0.872742
C	 -1.776919	 0.251461	 -0.627760
C	 -3.003216	 -0.621249	 -0.497143
H	 -1.526479	 0.431544	 -1.663713
H	 -1.919950	 1.210917	 -0.150990
H	 -2.847920	 -1.579266	 -0.977204
H	 -3.849645	 -0.135164	 -0.967794
H	 -3.243687	 -0.795411	 0.544112

11 4 2 3 F
