%nprocshared=1
%mem=2GB
#HF/6-31G* nosymm scf=tight opt=ModRedundant

Mol

0 1
H	 -2.212285	 -1.613118	 -1.937202
N	 -1.311338	 -1.643622	 -1.500924
C	 -1.352440	 -1.018575	 -0.190683
H	 -0.676654	 -1.141473	 -2.090951
C	 0.025911	 -1.040477	 0.436057
H	 -1.706144	 0.013226	 -0.207467
H	 -2.028851	 -1.584441	 0.442599
O	 0.874168	 -0.245412	 -0.342030
H	 -0.017456	 -0.655892	 1.454807
H	 0.395091	 -2.063047	 0.472002
C	 2.202317	 -0.244239	 0.074611
H	 2.711377	 -1.041390	 -0.449894
H	 2.692099	 0.699270	 -0.159667
H	 2.283185	 -0.418429	 1.145558

5 8 11 13 F
