%nprocshared=4
%mem=2GB
#HF/cc-pVTZ nosymm scf=tight opt=ModRedundant

Mol

0 1
H	 2.614283	 2.028610	 0.296620
O	 3.358864	 1.662087	 -0.142800
C	 3.565468	 0.338079	 0.273842
C	 2.646814	 -0.663332	 -0.410217
H	 4.594507	 0.109328	 0.031499
H	 3.464124	 0.260182	 1.354634
C	 1.168023	 -0.491974	 -0.070126
H	 2.786898	 -0.583058	 -1.484037
H	 2.968437	 -1.661730	 -0.123582
C	 0.280766	 -1.534674	 -0.748644
H	 0.845701	 0.501886	 -0.362281
H	 1.036387	 -0.559286	 1.008497
C	 -1.203009	 -1.456078	 -0.384652
H	 0.390653	 -1.449468	 -1.827018
H	 0.646838	 -2.523141	 -0.485218
C	 -1.924972	 -0.204402	 -0.880453
H	 -1.701865	 -2.328676	 -0.797258
H	 -1.311626	 -1.529857	 0.695123
C	 -3.421479	 -0.219299	 -0.579366
H	 -1.777424	 -0.107786	 -1.953935
H	 -1.486655	 0.682093	 -0.432114
C	 -4.144721	 1.030649	 -1.069717
H	 -3.870489	 -1.097122	 -1.035868
H	 -3.570686	 -0.324297	 0.491977
H	 -4.041415	 1.146657	 -2.143546
H	 -5.203793	 0.986515	 -0.842724
H	 -3.743749	 1.924042	 -0.602362

4 3 2 1 F
