%nprocshared=4
%mem=2GB
#HF/cc-pVTZ nosymm scf=tight opt=ModRedundant

Mol

0 1
O	 2.868453	 1.353349	 -0.000734
C	 2.841259	 0.166180	 -0.000295
C	 1.542794	 -0.614730	 -0.000853
C	 4.113372	 -0.651103	 0.000743
C	 0.288398	 0.247429	 0.000314
H	 1.557171	 -1.273139	 -0.866508
H	 1.557484	 -1.274998	 0.863344
C	 -0.993089	 -0.581367	 -0.000217
H	 0.305153	 0.900562	 -0.864701
H	 0.305567	 0.898805	 0.866656
C	 -2.258482	 0.271340	 0.000669
H	 -1.002280	 -1.233920	 -0.870484
H	 -1.002061	 -1.235367	 0.868958
C	 -1.981952	 1.768525	 -0.102792
H	 -2.823421	 0.073273	 0.908263
H	 -2.896348	 -0.033090	 -0.825513
C	 -3.251195	 2.613989	 -0.101215
H	 -1.345389	 2.073947	 0.723310
H	 -1.418391	 1.967602	 -1.010363
H	 -3.820389	 2.463444	 0.810044
H	 -3.019978	 3.670410	 -0.175611
H	 -3.893796	 2.356505	 -0.936565
H	 4.145311	 -1.294584	 -0.871587
H	 4.970080	 0.004978	 -0.000091
H	 4.145223	 -1.291980	 0.874988

15 11 8 12 F
