%nprocshared=4
%mem=2GB
#HF/6-31G* nosymm scf=tight opt=ModRedundant

Mol

0 1
O	 -1.448904	 0.337868	 2.578750
C	 -0.620349	 1.039576	 2.083234
C	 0.647897	 0.448932	 1.492472
C	 -0.802311	 2.538021	 1.988745
C	 0.379448	 -0.143569	 0.099626
H	 0.987340	 -0.335519	 2.160094
H	 1.428071	 1.202344	 1.431440
C	 1.631333	 -0.777471	 -0.511575
H	 -0.413882	 -0.876792	 0.191262
H	 0.011602	 0.636159	 -0.565549
C	 2.915987	 -0.544314	 0.291766
H	 1.766672	 -0.399098	 -1.523130
H	 1.471257	 -1.849544	 -0.605828
C	 3.373361	 0.914346	 0.347591
H	 3.708709	 -1.142521	 -0.150311
H	 2.780642	 -0.921148	 1.303579
H	 3.506512	 1.320010	 -0.651625
H	 4.322697	 0.999599	 0.867103
H	 2.660624	 1.545032	 0.868198
H	 -0.062504	 3.035724	 2.610228
H	 -1.793686	 2.812325	 2.321486
H	 -0.646984	 2.880654	 0.969784

3 5 8 12 F
