%nprocshared=1
%mem=2GB
#HF/6-31G* nosymm scf=tight opt=ModRedundant

Mol

0 1
H	 -3.161837	 0.500524	 -0.000234
C	 -2.367097	 -0.232926	 -0.000000
O	 -1.158440	 0.455814	 -0.000122
H	 -2.468853	 -0.861886	 -0.882833
H	 -2.468942	 -0.861421	 0.883154
C	 -0.029776	 -0.365156	 0.000148
C	 0.382020	 -0.632840	 -1.437013
H	 -0.247972	 -1.303134	 0.512482
H	 0.784286	 0.116031	 0.543904
C	 1.616067	 -1.528706	 -1.534148
H	 -0.455053	 -1.090233	 -1.955436
H	 0.570051	 0.318960	 -1.924270
H	 1.440475	 -2.496745	 -1.073181
H	 1.887653	 -1.702723	 -2.569911
H	 2.472827	 -1.077830	 -1.041120

8 6 3 2 F
