%nprocshared=4
%mem=2GB
#HF/cc-pVTZ nosymm scf=tight opt=ModRedundant

Mol

0 1
H	 1.155103	 1.077433	 1.751857
C	 0.231802	 1.186641	 1.202040
O	 0.000000	 0.000000	 0.518769
H	 -0.570060	 1.405417	 1.904187
H	 0.328654	 2.027692	 0.518587
C	 -1.165153	 0.000000	 -0.236961
H	 -1.229451	 0.882440	 -0.870223
H	 -2.002557	 0.000000	 0.445289
H	 -1.229451	 -0.882440	 -0.870223

2 3 6 7 F
