%nprocshared=4
%mem=2GB
#HF/cc-pVTZ nosymm scf=tight opt=ModRedundant

Mol

0 1
H	 -2.816458	 -0.841657	 -0.064679
N	 -1.878861	 -0.711874	 0.250184
C	 -1.341419	 0.551458	 -0.220231
H	 -1.333674	 -1.468530	 -0.105118
C	 0.082190	 0.731516	 0.254705
H	 -1.357065	 0.652078	 -1.304747
H	 -1.939897	 1.357530	 0.189797
O	 0.601646	 1.896559	 -0.311465
H	 0.103121	 0.802191	 1.341323
H	 0.678140	 -0.128376	 -0.042544
C	 1.934424	 2.140837	 -0.006098
H	 2.223407	 3.061650	 -0.491873
H	 2.083174	 2.250171	 1.066103
H	 2.577558	 1.339634	 -0.362491

8 5 3 6 F
