%nprocshared=4
%mem=2GB
#HF/cc-pVTZ nosymm scf=tight opt=ModRedundant

Mol

0 1
H	 -3.051669	 1.821362	 0.733281
O	 -2.391450	 1.841420	 1.402728
C	 -1.126442	 1.839816	 0.816743
C	 -0.793473	 0.591216	 0.050087
H	 -0.414270	 1.963086	 1.624157
H	 -1.002084	 2.698990	 0.160196
C	 -1.534243	 -0.493009	 -0.013340
H	 0.144290	 0.626342	 -0.479642
H	 -1.101195	 -1.466332	 -0.144046
H	 -2.604242	 -0.437780	 0.050785

3 4 7 9 F
