%nprocshared=4
%mem=2GB
#HF/cc-pVTZ nosymm scf=tight opt=ModRedundant

Mol

0 1
H	 3.889604	 0.356866	 -0.089510
N	 3.091268	 -0.241216	 -0.065538
C	 1.860978	 0.530248	 0.016256
H	 3.192566	 -0.835836	 0.730398
C	 0.644130	 -0.381765	 -0.031064
H	 1.835721	 1.204666	 -0.833114
H	 1.808789	 1.151975	 0.911067
C	 -0.678115	 0.376691	 0.025731
H	 0.693998	 -0.977147	 -0.936845
H	 0.693309	 -1.082142	 0.800523
C	 -0.901090	 1.293360	 -1.173937
H	 -0.714268	 0.968401	 0.937612
H	 -1.501001	 -0.331470	 0.090836
C	 -2.221000	 2.054580	 -1.110244
H	 -0.079776	 2.001338	 -1.241051
H	 -0.869228	 0.703932	 -2.086258
H	 -2.269237	 2.681017	 -0.225659
H	 -2.347585	 2.695081	 -1.975541
H	 -3.064851	 1.373291	 -1.077105

12 8 5 9 F
