%nprocshared=4
%mem=2GB
#HF/cc-pVTZ nosymm scf=tight opt=ModRedundant

Mol

0 1
H	 -3.267872	 0.741949	 -0.450145
C	 -2.805877	 1.700858	 -0.226673
O	 -1.446003	 1.687377	 -0.506141
H	 -3.263050	 2.459444	 -0.845081
H	 -2.997251	 1.939557	 0.817972
C	 -0.718530	 0.758693	 0.228682
C	 0.718529	 0.758687	 -0.228709
H	 -0.751294	 1.007551	 1.289326
H	 -1.132978	 -0.239545	 0.105459
O	 1.401606	 -0.295166	 0.366636
H	 0.748705	 0.673477	 -1.312803
H	 1.176496	 1.708671	 0.046552
C	 2.714315	 -0.441627	 -0.061017
H	 2.765292	 -0.641548	 -1.128869
H	 3.305661	 0.447341	 0.150952
H	 3.143725	 -1.278506	 0.470147

3 6 7 11 F
