%nprocshared=4
%mem=2GB
#HF/cc-pVTZ nosymm scf=tight opt=ModRedundant

Mol

0 1
H	 -0.939693	 0.000281	 1.681345
O	 -0.046262	 -0.000157	 1.387678
C	 -0.000837	 0.000006	 -0.025491
C	 -1.085933	 0.925839	 -0.571887
C	 1.381612	 0.451420	 -0.492618
C	 -0.264765	 -1.441610	 -0.438135
H	 -1.099331	 0.918915	 -1.655661
H	 -0.917231	 1.948874	 -0.249381
H	 -2.059337	 0.615683	 -0.213068
H	 1.458555	 0.427068	 -1.573485
H	 1.584267	 1.467949	 -0.169089
H	 2.146657	 -0.192936	 -0.077917
H	 -0.249721	 -1.543796	 -1.516847
H	 -1.231940	 -1.764411	 -0.074015
H	 0.489426	 -2.095402	 -0.018652

4 3 2 1 F
