%nprocshared=4
%mem=2GB
#HF/cc-pVTZ nosymm scf=tight opt=ModRedundant

Mol

0 1
H	 -2.698799	 -0.000846	 0.036018
C	 -1.694291	 -0.000483	 0.434279
O	 -0.828718	 -0.000608	 -0.655022
H	 -1.576855	 0.881100	 1.056504
H	 -1.576401	 -0.881658	 1.057001
C	 0.557892	 0.000078	 -0.420099
C	 0.972079	 -1.009998	 0.644075
C	 1.369255	 -0.144714	 -1.702665
H	 0.741218	 0.990979	 -0.023709
H	 0.351727	 -0.904583	 1.525613
H	 2.003180	 -0.839301	 0.931199
H	 0.896680	 -2.031814	 0.290819
H	 1.024406	 0.560816	 -2.448554
H	 2.414828	 0.057327	 -1.500849
H	 1.304302	 -1.143525	 -2.118235

9 6 3 2 F
