%nprocshared=4
%mem=2GB
#HF/cc-pVTZ nosymm scf=tight opt=ModRedundant

Mol

0 1
O	 -2.071633	 -1.227563	 -0.223463
C	 -1.652164	 -0.152425	 0.058082
C	 -0.327811	 0.006324	 0.778296
C	 -2.402515	 1.108629	 -0.298924
C	 0.664972	 0.816313	 -0.064156
H	 -0.477522	 0.491134	 1.737290
H	 0.069514	 -0.984895	 0.955652
C	 1.116863	 0.073527	 -1.318067
H	 1.536137	 1.068376	 0.535202
H	 0.198506	 1.754834	 -0.343353
C	 2.094627	 0.880310	 -2.165557
H	 1.577657	 -0.868174	 -1.032776
H	 0.245830	 -0.180670	 -1.914914
H	 2.992781	 1.120249	 -1.606286
H	 1.650214	 1.814131	 -2.492427
H	 2.393251	 0.328672	 -3.049254
H	 -3.240910	 0.874416	 -0.936711
H	 -1.747554	 1.818823	 -0.790984
H	 -2.760419	 1.579708	 0.610998

5 3 2 4 F
