%nprocshared=4
%mem=2GB
#HF/6-31G* nosymm scf=tight opt=ModRedundant

Mol

0 1
O	 3.225979	 0.970355	 -0.599647
C	 2.701189	 0.057885	 -0.047330
C	 1.245376	 -0.013843	 0.345420
O	 3.347903	 -1.046386	 0.304773
C	 0.455112	 1.231400	 -0.050772
H	 0.838542	 -0.913825	 -0.103701
H	 1.208210	 -0.175333	 1.419774
C	 -0.998893	 1.219485	 0.433193
H	 0.482531	 1.345121	 -1.130325
H	 0.957290	 2.103070	 0.354729
C	 -1.920834	 0.253803	 -0.316870
H	 -1.395572	 2.227089	 0.332675
H	 -1.024880	 0.990215	 1.497509
C	 -3.380964	 0.358690	 0.128124
H	 -1.855378	 0.453948	 -1.385268
H	 -1.583911	 -0.770813	 -0.176806
C	 -4.310623	 -0.605435	 -0.611015
H	 -3.730224	 1.378930	 -0.021418
H	 -3.445715	 0.169213	 1.198454
C	 -5.767499	 -0.491666	 -0.163499
H	 -4.246392	 -0.418138	 -1.680798
H	 -3.965664	 -1.626081	 -0.459139
H	 -6.401242	 -1.187133	 -0.705073
H	 -6.153192	 0.509369	 -0.334856
H	 -5.870102	 -0.707292	 0.896337
C	 4.728119	 -1.109107	 -0.004993
H	 4.882018	 -1.033965	 -1.071845
H	 5.068212	 -2.067527	 0.355250
H	 5.265056	 -0.311663	 0.488280

11 8 5 9 F
