%nprocshared=1
%mem=2GB
#HF/6-31G* nosymm scf=tight 

Mol

0 1
O	 -0.988096	 -1.408613	 0.050699
C	 -0.676749	 -0.249230	 -0.009274
C	 -1.746085	 0.827156	 -0.009539
N	 0.623947	 0.147590	 -0.102813
H	 -1.701500	 1.431508	 -0.908902
H	 -2.703425	 0.330732	 0.036390
H	 -1.647323	 1.487769	 0.845106
C	 1.667331	 -0.835070	 0.115375
C	 1.054714	 1.527795	 -0.061359
H	 2.484431	 -0.653419	 -0.574094
H	 1.271363	 -1.821556	 -0.051941
H	 2.056331	 -0.779681	 1.129787
H	 1.947539	 1.638589	 -0.665202
H	 0.304735	 2.190059	 -0.463693
H	 1.292650	 1.848930	 0.951099

2 4 8 10 F
