%nprocshared=4
%mem=2GB
#HF/6-31G* nosymm scf=tight opt=ModRedundant

Mol

0 1
O	 1.631698	 1.670088	 0.488540
C	 1.064989	 1.228418	 1.435581
C	 -0.245748	 0.480817	 1.405128
O	 1.528182	 1.336168	 2.674523
C	 -0.823008	 0.326187	 0.001381
H	 -0.078639	 -0.486562	 1.870925
H	 -0.935460	 1.008025	 2.058632
C	 -2.149452	 -0.435131	 -0.000098
H	 -0.102188	 -0.187247	 -0.627103
H	 -0.960965	 1.308789	 -0.438812
C	 -3.368779	 0.488503	 -0.000883
H	 -2.193746	 -1.087250	 -0.871175
H	 -2.195311	 -1.087803	 0.870418
C	 -4.693822	 -0.272754	 -0.001129
H	 -3.325798	 1.139422	 -0.871284
H	 -3.326423	 1.139959	 0.869145
H	 -4.781274	 -0.907928	 -0.878124
H	 -5.538651	 0.408946	 -0.001420
H	 -4.781694	 -0.907783	 0.875984
C	 2.757928	 2.017338	 2.843892
H	 3.547412	 1.516753	 2.301989
H	 2.961773	 1.999419	 3.903138
H	 2.678883	 3.036892	 2.494938

9 5 8 12 F
