%nprocshared=4
%mem=2GB
#HF/cc-pVTZ nosymm scf=tight opt=ModRedundant

Mol

0 1
H	 3.889604	 0.356866	 -0.089510
N	 3.091268	 -0.241216	 -0.065538
C	 1.860978	 0.530248	 0.016256
H	 3.192566	 -0.835836	 0.730398
C	 0.644130	 -0.381765	 -0.031064
H	 1.835721	 1.204666	 -0.833114
H	 1.808789	 1.151975	 0.911067
C	 -0.678115	 0.376691	 0.025731
H	 0.693998	 -0.977147	 -0.936845
H	 0.693309	 -1.082142	 0.800523
C	 -0.712350	 1.451465	 1.108732
H	 -1.489316	 -0.327303	 0.196898
H	 -0.874852	 0.837285	 -0.939680
C	 -2.038063	 2.203014	 1.166490
H	 -0.515535	 0.993424	 2.074006
H	 0.094976	 2.158417	 0.937811
H	 -2.862252	 1.527632	 1.370968
H	 -2.028703	 2.957435	 1.944800
H	 -2.247054	 2.701436	 0.225621

12 8 5 9 F
