%nprocshared=4
%mem=2GB
#HF/cc-pVTZ nosymm scf=tight opt=ModRedundant

Mol

0 1
O	 3.219313	 0.959291	 -0.614106
C	 2.698710	 0.058177	 -0.050237
C	 1.246364	 -0.005813	 0.348416
O	 3.344101	 -1.038700	 0.312317
C	 0.453207	 1.232821	 -0.049003
H	 0.839270	 -0.907818	 -0.092281
H	 1.216683	 -0.160521	 1.422434
C	 -0.998367	 1.217982	 0.432195
H	 0.481498	 1.345443	 -1.127236
H	 0.951413	 2.105557	 0.354893
C	 -1.882951	 0.151251	 -0.211235
H	 -1.429490	 2.193659	 0.228843
H	 -1.019755	 1.099323	 1.513279
C	 -1.242540	 -1.234267	 -0.211356
H	 -2.831456	 0.107651	 0.319151
H	 -2.118301	 0.427902	 -1.234764
C	 -2.114885	 -2.306972	 -0.857183
H	 -1.016587	 -1.525249	 0.811686
H	 -0.288346	 -1.188819	 -0.731274
C	 -1.469129	 -3.688546	 -0.851854
H	 -3.068622	 -2.353703	 -0.338607
H	 -2.339326	 -2.019001	 -1.880685
H	 -2.113588	 -4.425528	 -1.317166
H	 -1.264213	 -4.020771	 0.160443
H	 -0.528707	 -3.683115	 -1.392949
C	 4.720529	 -1.114346	 0.001449
H	 4.874321	 -1.055557	 -1.065852
H	 5.057824	 -2.067950	 0.373977
H	 5.264321	 -0.313596	 0.480350

15 11 8 5 F
