%nprocshared=1
%mem=2GB
#HF/6-31G* nosymm scf=tight 

Mol

0 1
H	 -5.864115	 -2.109429	 2.402685
O	 -5.769094	 -2.363382	 3.309079
C	 -4.778685	 -3.353515	 3.422127
C	 -3.365365	 -2.814765	 3.229766
H	 -4.882026	 -3.760600	 4.419763
H	 -4.969268	 -4.164963	 2.720693
C	 -3.097416	 -2.256099	 1.830136
H	 -3.187363	 -2.040845	 3.971878
H	 -2.663942	 -3.621073	 3.437706
C	 -1.655193	 -1.773200	 1.652316
H	 -3.781568	 -1.434620	 1.636555
H	 -3.311107	 -3.024172	 1.086671
C	 -1.309753	 -1.282496	 0.241564
H	 -1.452495	 -0.979465	 2.369076
H	 -0.982919	 -2.589850	 1.906938
C	 -2.037799	 -0.007733	 -0.193645
H	 -0.237730	 -1.102353	 0.195388
H	 -1.513294	 -2.076728	 -0.475098
C	 -3.489788	 0.042957	 0.286558
H	 -2.017067	 0.064384	 -1.280144
H	 -1.513726	 0.868678	 0.179924
C	 -4.216917	 1.317354	 -0.141063
H	 -4.025645	 -0.823308	 -0.095450
H	 -3.513059	 -0.038752	 1.371301
H	 -4.239342	 1.411634	 -1.223113
H	 -5.243387	 1.322503	 0.212445
H	 -3.726170	 2.201406	 0.256408

14 10 7 4 F
14 10 13 16 F
10 7 4 8 F
8 4 3 2 F
20 16 19 22 F
4 3 2 1 F
