%nprocshared=4
%mem=2GB
#HF/cc-pVTZ nosymm scf=tight opt=ModRedundant

Mol

0 1
O	 0.328633	 1.452192	 -0.327168
C	 0.781622	 1.719742	 -1.387478
C	 1.591021	 0.789252	 -2.253909
O	 0.630629	 2.901797	 -1.962250
C	 0.988306	 -0.601575	 -2.390508
H	 1.700936	 1.266824	 -3.222048
H	 2.589631	 0.745175	 -1.831681
C	 -0.463972	 -0.561702	 -2.856679
H	 1.055404	 -1.115171	 -1.438148
H	 1.582836	 -1.181766	 -3.087073
C	 -1.430506	 -0.103908	 -1.768236
H	 -0.551626	 0.101677	 -3.714289
H	 -0.760257	 -1.548505	 -3.205497
C	 -2.881931	 -0.063567	 -2.234232
H	 -1.136093	 0.882017	 -1.419770
H	 -1.344987	 -0.766746	 -0.911795
H	 -3.006507	 0.618098	 -3.069125
H	 -3.540448	 0.265201	 -1.438619
H	 -3.217183	 -1.043779	 -2.556762
C	 1.774850	 3.725117	 -2.063383
H	 2.168391	 3.953019	 -1.083894
H	 1.449161	 4.628457	 -2.553025
H	 2.542901	 3.240436	 -2.647673

1 2 4 20 F
