%nprocshared=4
%mem=2GB
#HF/6-31G* nosymm scf=tight opt=ModRedundant

Mol

0 1
H	 -0.564533	 -1.557110	 0.438355
N	 -0.626943	 -0.667432	 -0.000092
C	 -1.884486	 -0.289651	 -0.603899
C	 0.469286	 0.129090	 0.000148
H	 -2.162557	 -0.984548	 -1.389266
H	 -1.771439	 0.693673	 -1.030540
H	 -2.678438	 -0.263734	 0.135019
C	 1.788933	 -0.616240	 -0.000037
O	 0.411098	 1.327768	 -0.000049
H	 1.872803	 -1.245775	 -0.880381
H	 2.595421	 0.101576	 0.003713
H	 1.870096	 -1.252171	 0.875943

3 2 4 9 F
