%nprocshared=4
%mem=2GB
#HF/cc-pVTZ nosymm scf=tight opt=ModRedundant

Mol

0 1
H	 -2.644180	 -0.653737	 1.272255
C	 -2.092774	 -0.380414	 0.391915
O	 -0.808934	 -0.154049	 0.752536
F	 -2.163230	 -1.351640	 -0.507133
F	 -2.627232	 0.691260	 -0.169301
C	 0.085006	 0.250800	 -0.215074
C	 1.487583	 -0.073338	 0.293837
Cl	 -0.059882	 1.989198	 -0.535256
H	 -0.058191	 -0.261146	 -1.150516
F	 2.387643	 0.275334	 -0.590099
F	 1.585282	 -1.368231	 0.480975
F	 1.755089	 0.524555	 1.422206

9 6 3 2 F
