%nprocshared=4
%mem=2GB
#HF/cc-pVTZ nosymm scf=tight opt=ModRedundant

Mol

0 1
H	 0.372786	 -3.063731	 -4.270100
O	 1.311417	 -3.054546	 -4.296892
C	 1.799065	 -1.830421	 -3.814203
C	 1.658666	 -1.673376	 -2.307448
H	 2.845903	 -1.802073	 -4.084955
H	 1.312159	 -1.000761	 -4.323160
C	 1.658174	 -2.991675	 -1.536775
H	 2.465335	 -1.040685	 -1.949477
H	 0.730222	 -1.142162	 -2.111998
C	 0.412946	 -3.834612	 -1.808253
H	 1.730488	 -2.785813	 -0.474045
H	 2.543157	 -3.566135	 -1.805264
C	 0.394000	 -5.200187	 -1.118976
H	 -0.469887	 -3.272075	 -1.514338
H	 0.328587	 -3.990099	 -2.880249
C	 1.443500	 -6.191378	 -1.618808
H	 0.543824	 -5.046482	 -0.053868
H	 -0.595062	 -5.640683	 -1.223253
C	 1.449845	 -7.500897	 -0.834251
H	 2.427799	 -5.732393	 -1.555909
H	 1.277830	 -6.413294	 -2.668717
C	 2.493994	 -8.494267	 -1.333111
H	 1.628175	 -7.288748	 0.216353
H	 0.464726	 -7.956530	 -0.889044
H	 3.494192	 -8.079964	 -1.261033
H	 2.473465	 -9.410272	 -0.753784
H	 2.320689	 -8.756392	 -2.371671

8 4 3 2 F
