%nprocshared=1
%mem=2GB
#HF/6-31G* nosymm scf=tight 

Mol

0 1
H	 3.777811	 0.447193	 1.052589
N	 2.961508	 -0.132830	 1.080295
C	 1.795035	 0.594733	 0.601213
H	 2.835051	 -0.409031	 2.035570
C	 0.575034	 -0.319049	 0.552695
H	 2.016802	 0.950180	 -0.400454
H	 1.563079	 1.477449	 1.202384
C	 -0.679275	 0.379305	 0.025956
H	 0.814600	 -1.178367	 -0.066996
H	 0.379515	 -0.704958	 1.552786
C	 -1.903357	 -0.536963	 -0.023547
H	 -0.483568	 0.767806	 -0.972350
H	 -0.904666	 1.243044	 0.649655
C	 -3.225172	 0.228290	 0.028445
H	 -1.867824	 -1.134999	 -0.931459
H	 -1.860449	 -1.239604	 0.805977
H	 -3.313397	 0.915643	 -0.808262
H	 -4.073500	 -0.448134	 -0.008893
H	 -3.306061	 0.809945	 0.942516

6 3 5 9 F
12 8 5 9 F
1 2 3 6 F
