%nprocshared=1
%mem=2GB
#HF/6-31G* nosymm scf=tight opt=ModRedundant

Mol

0 1
O	 0.422607	 1.124111	 0.706356
C	 0.486307	 0.169203	 0.000779
C	 1.608116	 -0.841643	 0.000302
O	 -0.438583	 -0.137522	 -0.898168
C	 2.990107	 -0.200498	 -0.000684
H	 1.468623	 -1.481519	 -0.865924
H	 1.469683	 -1.481289	 0.866878
H	 3.129736	 0.423364	 -0.875135
H	 3.757882	 -0.966877	 -0.001197
H	 3.130964	 0.423383	 0.873533
C	 -1.560503	 0.731976	 -1.010724
C	 -2.460469	 0.173828	 -2.092779
H	 -1.212592	 1.726671	 -1.253880
H	 -2.066044	 0.780709	 -0.055923
H	 -1.937830	 0.126385	 -3.041333
H	 -3.332185	 0.809023	 -2.212309
H	 -2.796064	 -0.824747	 -1.836886

4 2 3 6 F
