%nprocshared=4
%mem=2GB
#HF/cc-pVTZ nosymm scf=tight opt=ModRedundant

Mol

0 1
H	 2.902289	 1.490736	 1.199620
O	 3.625533	 1.175683	 0.690219
C	 3.690602	 -0.224688	 0.753470
C	 2.593535	 -0.919225	 -0.039466
H	 4.656330	 -0.494141	 0.347581
H	 3.671776	 -0.559049	 1.788988
C	 1.184322	 -0.681404	 0.498501
H	 2.651526	 -0.588457	 -1.072126
H	 2.804054	 -1.986031	 -0.037307
C	 0.113298	 -1.420414	 -0.302504
H	 0.972047	 0.382490	 0.490019
H	 1.136786	 -1.001801	 1.537910
C	 -1.311023	 -1.277304	 0.237018
H	 0.141729	 -1.080536	 -1.334929
H	 0.367061	 -2.476609	 -0.325454
C	 -2.041121	 -0.006551	 -0.194127
H	 -1.888548	 -2.136293	 -0.093331
H	 -1.289731	 -1.328757	 1.323321
C	 -3.489218	 0.042606	 0.286507
H	 -2.022185	 0.066287	 -1.279394
H	 -1.518764	 0.869305	 0.178730
C	 -4.219984	 1.311773	 -0.139038
H	 -4.022855	 -0.824300	 -0.093339
H	 -3.510372	 -0.038577	 1.370031
H	 -4.244251	 1.405725	 -1.219696
H	 -5.244345	 1.313233	 0.215630
H	 -3.732090	 2.196311	 0.257073

14 10 13 16 F
