%nprocshared=4
%mem=2GB
#HF/cc-pVTZ nosymm scf=tight opt=ModRedundant

Mol

0 1
H	 -1.752232	 -2.214755	 -0.011938
C	 -1.343852	 -1.221619	 -0.018179
N	 -0.058800	 -1.097635	 -0.261688
C	 -2.148159	 -0.124236	 0.219734
C	 0.449026	 0.119242	 -0.273393
H	 -3.196988	 -0.237571	 0.417076
N	 -1.655094	 1.094230	 0.209506
C	 -0.370318	 1.215445	 -0.035100
C	 1.924033	 0.265863	 -0.538106
H	 0.033214	 2.210441	 -0.046812
C	 2.218467	 1.084385	 -1.796192
H	 2.374558	 0.750308	 0.319859
H	 2.372935	 -0.716549	 -0.625103
H	 3.287267	 1.196604	 -1.934058
H	 1.779640	 2.070619	 -1.720347
H	 1.814642	 0.601815	 -2.679140

12 9 5 3 F
