%nprocshared=1
%mem=2GB
#HF/6-31G* nosymm scf=tight 
prop=(read,field)

Mol

0 1
H	 -1.356829	 -0.000226	 1.244474
C	 -1.134356	 -0.000132	 0.177528
H	 -2.049067	 -0.000258	 -0.393891
O	 -0.375165	 1.110325	 -0.160756
O	 -0.374864	 -1.110390	 -0.160837
C	 0.968424	 0.771892	 0.065571
C	 0.968562	 -0.771667	 0.065482
H	 1.306856	 1.173784	 1.015289
H	 1.567047	 1.199503	 -0.726373
H	 1.567015	 -1.199244	 -0.726603
H	 1.307116	 -1.173633	 1.015107

@grid.dat /N
