%nprocshared=1
%mem=2GB
#HF/6-31G* nosymm scf=tight 

Mol

0 1
O	 1.846825	 1.296220	 0.000415
C	 1.705091	 0.115954	 0.001797
C	 0.381791	 -0.609817	 0.001258
O	 2.721346	 -0.737485	 -0.000216
C	 -0.823008	 0.326187	 0.001381
H	 0.371250	 -1.265087	 -0.865474
H	 0.370908	 -1.265746	 0.867490
C	 -1.032129	 1.003235	 -1.353955
H	 -0.691555	 1.078112	 0.773079
H	 -1.711394	 -0.234432	 0.274851
C	 -2.236183	 1.946531	 -1.371472
H	 -0.136551	 1.560816	 -1.624211
H	 -1.160957	 0.243984	 -2.123905
C	 -2.445344	 2.621785	 -2.726291
H	 -2.107816	 2.707142	 -0.604573
H	 -3.131732	 1.390820	 -1.102557
H	 -1.579108	 3.214093	 -3.007398
H	 -3.305749	 3.283434	 -2.706910
H	 -2.610717	 1.887217	 -3.509472
C	 4.024888	 -0.184556	 -0.001949
H	 4.179030	 0.422472	 -0.882452
H	 4.701782	 -1.024608	 -0.003642
H	 4.181981	 0.421185	 0.878906

15 11 8 12 F
9 5 8 12 F
1 2 3 6 F
1 2 4 20 F
