%nprocshared=4
%mem=2GB
#HF/cc-pVTZ nosymm scf=tight opt=ModRedundant

Mol

0 1
H	 2.475235	 2.561476	 1.450991
O	 1.539868	 2.505355	 1.524237
C	 1.047619	 1.509630	 0.761550
C	 1.862240	 0.699372	 -0.014694
C	 -0.317513	 1.308712	 0.769757
H	 2.925474	 0.857284	 -0.019902
C	 1.310927	 -0.308402	 -0.779809
H	 -0.949336	 1.932806	 1.368212
C	 -0.861704	 0.296439	 0.000000
H	 1.951002	 -0.929018	 -1.376436
C	 -0.053743	 -0.515975	 -0.777179
C	 -2.330689	 0.069587	 0.000000
H	 -0.485322	 -1.298835	 -1.371113
O	 -2.848621	 -0.993976	 0.000000
H	 -2.934306	 0.982410	 0.000000

11 9 12 14 F
