%nprocshared=4
%mem=2GB
#HF/cc-pVTZ nosymm scf=tight opt=ModRedundant

Mol

0 1
H	 2.284876	 1.165424	 -4.962735
C	 2.664578	 1.326459	 -3.960357
C	 1.526126	 1.468534	 -2.955835
H	 3.301681	 0.485562	 -3.708948
H	 3.284657	 2.216904	 -3.980573
C	 2.023941	 1.707797	 -1.532141
H	 0.914718	 0.573791	 -2.979388
H	 0.884932	 2.294659	 -3.254516
C	 0.906047	 1.860226	 -0.505513
H	 2.669372	 0.891606	 -1.232009
H	 2.627424	 2.610740	 -1.515207
C	 0.166485	 0.574257	 -0.177158
H	 1.315559	 2.221418	 0.434490
H	 0.187986	 2.611414	 -0.821142
C	 -1.180025	 0.697761	 0.509157
O	 0.628334	 -0.492419	 -0.426503
C	 -2.285431	 -0.137488	 -0.145671
H	 -1.447360	 1.745713	 0.496200
H	 -1.065514	 0.394096	 1.546399
C	 -3.646545	 0.082747	 0.508954
H	 -2.348635	 0.118247	 -1.199806
H	 -2.034895	 -1.192387	 -0.096473
C	 -4.757412	 -0.737227	 -0.138149
H	 -3.900211	 1.137405	 0.459735
H	 -3.580878	 -0.166775	 1.564416
H	 -4.867876	 -0.486707	 -1.187777
H	 -4.549650	 -1.800049	 -0.072540
H	 -5.709585	 -0.556397	 0.346597

16 12 15 17 F
