%nprocshared=4
%mem=2GB
#HF/cc-pVTZ nosymm scf=tight 
prop=(read,field)

Mol

0 1
H	 -1.088406	 -1.364814	 0.152217
O	 -1.432203	 -0.565316	 -0.200828
C	 -0.727308	 0.534455	 0.310670
C	 0.680072	 0.664361	 -0.252245
H	 -1.306952	 1.407929	 0.044195
H	 -0.690971	 0.490086	 1.397593
C	 1.605241	 -0.489432	 0.123082
H	 0.614939	 0.745575	 -1.332242
H	 1.101264	 1.597821	 0.110934
H	 1.247477	 -1.432557	 -0.275220
H	 2.601285	 -0.332888	 -0.273078
H	 1.691626	 -0.589974	 1.200758

@grid.dat /N
