%nprocshared=1
%mem=2GB
#HF/6-31G* nosymm scf=tight 

Mol

0 1
O	 -2.042549	 -1.228399	 -0.269030
C	 -1.653912	 -0.146171	 0.050137
C	 -0.332303	 0.024011	 0.778412
C	 -2.438579	 1.106236	 -0.272369
C	 0.845713	 -0.001731	 -0.208243
H	 -0.323783	 0.953829	 1.340327
H	 -0.235459	 -0.796807	 1.480410
C	 0.470186	 -0.615443	 -1.557823
H	 1.674019	 -0.561873	 0.222142
H	 1.199052	 1.014936	 -0.352052
C	 1.637365	 -0.634146	 -2.544002
H	 0.108537	 -1.630068	 -1.405602
H	 -0.357580	 -0.056006	 -1.987243
H	 2.469395	 -1.215457	 -2.156887
H	 1.999550	 0.370548	 -2.741119
H	 1.341474	 -1.071494	 -3.492265
H	 -3.277823	 0.863061	 -0.908988
H	 -1.806773	 1.843019	 -0.759671
H	 -2.802853	 1.554979	 0.648059

11 8 5 9 F
5 3 2 4 F
