%nprocshared=4
%mem=2GB
#HF/cc-pVTZ nosymm scf=tight opt=ModRedundant

Mol

0 1
H	 2.347177	 -1.964958	 -0.503488
N	 1.366477	 -1.788686	 -0.511563
C	 1.064548	 -0.610046	 -1.298639
C	 0.856055	 -1.672056	 0.839625
H	 1.438689	 -0.751017	 -2.305365
H	 1.528379	 0.290192	 -0.891146
C	 -0.438757	 -0.404296	 -1.341271
H	 1.079117	 -2.582584	 1.382335
H	 1.306713	 -0.838916	 1.382215
C	 -0.646977	 -1.464915	 0.794192
H	 -0.895569	 -1.233124	 -1.889868
H	 -0.663540	 0.508917	 -1.879447
N	 -0.976577	 -0.298712	 -0.000000
H	 -1.022315	 -1.318595	 1.800090
H	 -1.118134	 -2.366809	 0.392710
C	 -2.391156	 -0.021003	 -0.000000
H	 -2.853954	 -0.458728	 -0.875714
H	 -2.853954	 -0.458728	 0.875714
H	 -2.614037	 1.049773	 -0.000000

7 13 16 19 F
