%nprocshared=4
%mem=2GB
#HF/6-31G* nosymm scf=tight opt=ModRedundant

Mol

0 1
O	 -2.042549	 -1.228399	 -0.269030
C	 -1.653912	 -0.146171	 0.050137
C	 -0.332303	 0.024011	 0.778412
C	 -2.438579	 1.106236	 -0.272369
C	 0.845713	 -0.001731	 -0.208243
H	 -0.323783	 0.953829	 1.340327
H	 -0.235459	 -0.796807	 1.480410
C	 2.123994	 0.592255	 0.385230
H	 0.581544	 0.546085	 -1.111125
H	 1.023017	 -1.029993	 -0.508877
C	 3.299463	 0.559767	 -0.590692
H	 1.936903	 1.618871	 0.692610
H	 2.387326	 0.045152	 1.287396
H	 3.079077	 1.127711	 -1.490092
H	 3.531089	 -0.457903	 -0.890925
H	 4.192176	 0.984073	 -0.142301
H	 -3.277823	 0.863061	 -0.908988
H	 -1.806773	 1.843019	 -0.759671
H	 -2.802853	 1.554979	 0.648059

9 5 3 2 F
