%nprocshared=4
%mem=2GB
#HF/cc-pVTZ nosymm scf=tight opt=ModRedundant

Mol

0 1
H	 3.107123	 4.273259	 -3.113921
C	 2.738732	 3.481799	 -2.489378
C	 1.576919	 3.661960	 -1.760423
C	 3.426749	 2.285465	 -2.415904
H	 1.043416	 4.590811	 -1.817948
C	 1.104159	 2.644471	 -0.958108
H	 4.327643	 2.146747	 -2.981606
C	 2.954642	 1.265693	 -1.612986
H	 0.206398	 2.766967	 -0.387075
C	 1.791073	 1.442746	 -0.881363
H	 3.485074	 0.337968	 -1.553835
C	 1.238974	 0.374429	 0.000004
O	 1.968286	 -0.725612	 -0.000027
O	 0.247281	 0.493342	 0.638427
C	 3.373556	 -0.568203	 0.000011
H	 3.695416	 -0.031588	 -0.879663
H	 3.782700	 -1.565294	 -0.000152
H	 3.695405	 -0.031851	 0.879862

10 12 13 15 F
