%nprocshared=4
%mem=2GB
#HF/cc-pVTZ nosymm scf=tight opt=ModRedundant

Mol

0 1
H	 -1.088256	 -1.364742	 0.152233
O	 -1.432053	 -0.565244	 -0.200812
C	 -0.727158	 0.534527	 0.310686
C	 0.680222	 0.664433	 -0.252229
H	 -1.306802	 1.408001	 0.044211
H	 -0.690821	 0.490158	 1.397609
C	 1.749420	 -0.024590	 0.590451
H	 0.689361	 0.259385	 -1.258750
H	 0.911734	 1.722872	 -0.334440
H	 1.584669	 -1.095091	 0.645319
H	 2.734663	 0.125412	 0.165776
H	 1.764538	 0.366262	 1.603349

8 4 3 2 F
