%nprocshared=4
%mem=2GB
#HF/cc-pVTZ nosymm scf=tight opt=ModRedundant

Mol

0 1
H	 -0.289159	 -1.109064	 0.816311
N	 -0.625934	 -0.663929	 -0.000707
C	 -1.978635	 -0.158664	 0.001017
C	 0.209390	 -0.561027	 -1.058170
H	 -2.519057	 -0.493535	 -0.876362
H	 -1.938890	 0.917202	 -0.004137
H	 -2.514266	 -0.485137	 0.884506
C	 1.582421	 -1.156496	 -0.836759
O	 -0.097959	 -0.038373	 -2.088435
H	 1.504532	 -2.214594	 -0.615488
H	 2.171346	 -1.018672	 -1.728521
H	 2.074664	 -0.673627	 -0.000605

4 2 3 5 F
