%nprocshared=4
%mem=2GB
#HF/cc-pVTZ nosymm scf=tight opt=ModRedundant

Mol

0 1
H	 0.372786	 -3.063731	 -4.270100
O	 1.311417	 -3.054546	 -4.296892
C	 1.799065	 -1.830421	 -3.814203
C	 1.658666	 -1.673376	 -2.307448
H	 2.845903	 -1.802073	 -4.084955
H	 1.312159	 -1.000761	 -4.323160
C	 0.214485	 -1.611354	 -1.815164
H	 2.174607	 -2.497936	 -1.824682
H	 2.177171	 -0.762872	 -2.016704
C	 -0.495292	 -2.962241	 -1.893628
H	 -0.333122	 -0.880905	 -2.401314
H	 0.200005	 -1.260245	 -0.784727
C	 -1.922820	 -2.975176	 -1.343853
H	 -0.505688	 -3.300461	 -2.926936
H	 0.091140	 -3.692559	 -1.342990
C	 -2.037251	 -2.754123	 0.163391
H	 -2.490293	 -2.199517	 -1.850661
H	 -2.399536	 -3.916978	 -1.606350
C	 -3.482888	 -2.676297	 0.647630
H	 -1.520996	 -1.834526	 0.430393
H	 -1.531790	 -3.552910	 0.697667
C	 -3.600780	 -2.459390	 2.152603
H	 -3.992677	 -1.870311	 0.126978
H	 -4.002391	 -3.590848	 0.374178
H	 -3.118360	 -1.535383	 2.453800
H	 -4.638351	 -2.406282	 2.462013
H	 -3.133063	 -3.269129	 2.702982

10 7 4 8 F
