%nprocshared=4
%mem=2GB
#HF/cc-pVTZ nosymm scf=tight opt=ModRedundant

Mol

0 1
H	 -1.970548	 0.107610	 -2.371943
O	 -2.116347	 0.013079	 -1.448522
C	 -1.079716	 0.620830	 -0.730068
C	 0.195183	 -0.196598	 -0.795153
H	 -0.884740	 1.627696	 -1.085503
H	 -1.408180	 0.693863	 0.296801
O	 1.172093	 0.457955	 -0.054438
H	 0.512955	 -0.308481	 -1.833132
H	 0.008195	 -1.193589	 -0.401938
C	 2.395478	 -0.199028	 -0.000366
H	 2.505946	 -0.901710	 -0.823354
H	 3.174616	 0.545641	 -0.071768
H	 2.513730	 -0.742241	 0.934223

4 7 10 13 F
