%nprocshared=4
%mem=2GB
#HF/cc-pVTZ nosymm scf=tight opt=ModRedundant

Mol

0 1
H	 2.342730	 0.877684	 -1.045694
C	 2.360424	 0.000000	 -0.411793
C	 1.173749	 0.000000	 0.526870
H	 3.286567	 0.000000	 0.151574
H	 2.342730	 -0.877684	 -1.045694
O	 0.000000	 0.000000	 -0.223739
H	 1.203779	 0.876757	 1.172538
H	 1.203779	 -0.876757	 1.172538
C	 -1.173749	 0.000000	 0.526870
C	 -1.083997	 -1.078563	 1.584193
H	 -2.031076	 -0.177703	 -0.121130
H	 -1.318594	 0.973774	 0.992998
H	 -0.954780	 -2.050482	 1.124683
H	 -1.988410	 -1.096924	 2.181539
H	 -0.241545	 -0.897787	 2.239989

11 9 6 3 F
