%nprocshared=4
%mem=2GB
#HF/cc-pVTZ nosymm scf=tight opt=ModRedundant

Mol

0 1
O	 -0.752674	 -1.277304	 -1.147351
C	 -0.569303	 -0.202354	 -0.651795
C	 -1.678288	 0.829625	 -0.649855
N	 0.622280	 0.144970	 -0.099307
H	 -1.378839	 1.731537	 -1.168730
H	 -2.525113	 0.393521	 -1.153038
H	 -1.963320	 1.100613	 0.359252
C	 1.664396	 -0.854993	 0.000772
C	 0.826579	 1.331040	 0.697721
H	 2.462727	 -0.615153	 -0.690869
H	 1.261798	 -1.821849	 -0.240651
H	 2.081615	 -0.891605	 1.003877
H	 1.838343	 1.687280	 0.552595
H	 0.158057	 2.124345	 0.410248
H	 0.691734	 1.135169	 1.759086

2 4 8 10 F
