%nprocshared=4
%mem=2GB
#HF/6-31G* nosymm scf=tight opt=ModRedundant

Mol

0 1
H	 -3.261111	 -0.295142	 1.469456
C	 -3.306842	 -0.277400	 0.373456
C	 -2.660244	 0.921717	 -0.272021
O	 -3.838538	 -1.161155	 -0.216482
C	 -2.364133	 2.043219	 0.733368
H	 -1.760516	 0.593497	 -0.779436
H	 -3.353338	 1.291242	 -1.026824
C	 -1.293015	 1.673235	 1.762503
H	 -2.046502	 2.923667	 0.182727
H	 -3.284097	 2.321940	 1.244971
C	 -1.000064	 2.804013	 2.750600
H	 -0.377837	 1.400217	 1.241200
H	 -1.601157	 0.786639	 2.313444
C	 0.082983	 2.436379	 3.768344
H	 -0.702969	 3.689471	 2.194335
H	 -1.915333	 3.066902	 3.279331
C	 0.352598	 3.508243	 4.830647
H	 1.009618	 2.211164	 3.242682
H	 -0.210399	 1.517698	 4.271996
C	 0.953415	 4.805418	 4.286610
H	 1.032212	 3.093871	 5.571166
H	 -0.571665	 3.731749	 5.359517
H	 1.871355	 4.610389	 3.738323
H	 0.271576	 5.320136	 3.617928
H	 1.191806	 5.488493	 5.096284

6 3 2 4 F
