%nprocshared=4
%mem=2GB
#HF/cc-pVTZ nosymm scf=tight opt=ModRedundant

Mol

0 1
H	 2.249072	 -5.280292	 2.252142
C	 2.167901	 -4.314392	 1.793271
C	 1.001266	 -3.939582	 1.141878
C	 3.217602	 -3.426822	 1.840418
H	 0.171440	 -4.619075	 1.094855
C	 0.892979	 -2.703033	 0.552606
H	 4.128232	 -3.698879	 2.339846
C	 3.125092	 -2.173881	 1.250511
H	 -0.003879	 -2.403705	 0.046920
C	 1.958208	 -1.810117	 0.603875
H	 3.959761	 -1.506163	 1.304735
O	 1.760432	 -0.625184	 0.000000
C	 2.773565	 0.334879	 0.000000
H	 2.728295	 0.960928	 -0.884150
H	 3.706387	 -0.206610	 0.000000
H	 2.728295	 0.960928	 0.884150

10 12 13 14 F
