%nprocshared=4
%mem=2GB
#HF/cc-pVTZ nosymm scf=tight opt=ModRedundant

Mol

0 1
H	 -2.816458	 -0.841657	 -0.064679
N	 -1.878861	 -0.711874	 0.250184
C	 -1.341419	 0.551458	 -0.220231
H	 -1.333674	 -1.468530	 -0.105118
C	 0.082190	 0.731516	 0.254705
H	 -1.357065	 0.652078	 -1.304747
H	 -1.939897	 1.357530	 0.189797
O	 0.833839	 -0.373729	 -0.146746
H	 0.500964	 1.642836	 -0.169909
H	 0.097202	 0.822141	 1.338444
C	 2.152506	 -0.362816	 0.289394
H	 2.632552	 -1.257129	 -0.080937
H	 2.689563	 0.504157	 -0.089582
H	 2.212404	 -0.356747	 1.375184

8 5 3 6 F
