%nprocshared=1
%mem=2GB
#HF/6-31G* nosymm scf=tight opt=ModRedundant

Mol

0 1
H	 2.591676	 2.013956	 0.335017
O	 3.341076	 1.666752	 -0.126416
C	 3.569581	 0.339145	 0.272707
C	 2.539767	 -0.640285	 -0.279495
H	 4.553106	 0.084646	 -0.100901
H	 3.608576	 0.269204	 1.359154
C	 2.889293	 -1.197377	 -1.661648
H	 2.429238	 -1.459056	 0.426738
H	 1.578831	 -0.130704	 -0.327396
C	 1.810524	 -2.134809	 -2.211462
H	 3.835762	 -1.727696	 -1.603988
H	 3.034182	 -0.371881	 -2.358718
C	 2.070793	 -2.654002	 -3.630278
H	 1.691815	 -2.979538	 -1.535305
H	 0.858853	 -1.607548	 -2.207042
C	 3.279045	 -3.584933	 -3.764336
H	 1.183856	 -3.186491	 -3.967346
H	 2.190062	 -1.808524	 -4.306132
C	 3.435219	 -4.159727	 -5.173825
H	 3.182395	 -4.403378	 -3.052355
H	 4.190750	 -3.055578	 -3.498106
C	 4.644259	 -5.084274	 -5.312026
H	 2.532496	 -4.704118	 -5.442557
H	 3.522179	 -3.343250	 -5.887750
H	 4.571142	 -5.929403	 -4.633327
H	 4.726515	 -5.476782	 -6.320890
H	 5.567932	 -4.559013	 -5.085549

8 4 3 2 F
