%nprocshared=4
%mem=2GB
#HF/6-31G* nosymm scf=tight opt=ModRedundant

Mol

0 1
O	 -2.646636	 -0.181562	 0.849348
C	 -2.001139	 -0.953124	 0.207116
C	 -0.889235	 -0.467034	 -0.705952
C	 -2.232257	 -2.445345	 0.292176
C	 0.379448	 -0.143569	 0.099626
H	 -1.240753	 0.430454	 -1.203197
H	 -0.666809	 -1.210119	 -1.466463
C	 1.631333	 -0.777471	 -0.511575
H	 0.482768	 0.934507	 0.149241
H	 0.263088	 -0.495696	 1.123449
C	 2.915987	 -0.544314	 0.291766
H	 1.766672	 -0.399098	 -1.523130
H	 1.471257	 -1.849544	 -0.605828
C	 3.373361	 0.914346	 0.347591
H	 3.708709	 -1.142521	 -0.150311
H	 2.780642	 -0.921148	 1.303579
H	 3.506512	 1.320010	 -0.651625
H	 4.322697	 0.999599	 0.867103
H	 2.660624	 1.545032	 0.868198
H	 -2.605046	 -2.812130	 -0.660589
H	 -2.952527	 -2.664835	 1.067946
H	 -1.301539	 -2.967627	 0.494145

6 3 5 8 F
