%nprocshared=4
%mem=2GB
#HF/cc-pVTZ nosymm scf=tight opt=ModRedundant

Mol

0 1
H	 -0.449441	 -1.533894	 -0.437849
N	 -0.625934	 -0.663929	 -0.000707
C	 -1.978635	 -0.158664	 0.001017
C	 0.415671	 -0.014306	 0.564651
H	 -2.519057	 -0.493535	 -0.876362
H	 -1.938890	 0.917202	 -0.004137
H	 -2.514266	 -0.485137	 0.884506
C	 1.743193	 -0.730458	 0.447898
O	 0.308408	 1.038608	 1.120477
H	 2.005774	 -0.872737	 -0.593931
H	 2.503096	 -0.139586	 0.932133
H	 1.690274	 -1.705854	 0.917388

4 2 3 5 F
