%nprocshared=4
%mem=2GB
#HF/cc-pVTZ nosymm scf=tight opt=ModRedundant

Mol

0 1
H	 4.233713	 -4.571610	 2.935407
O	 3.397032	 -4.956552	 2.752066
C	 2.375672	 -4.014193	 2.947153
C	 2.323821	 -2.943713	 1.867307
H	 1.451221	 -4.575765	 2.944618
H	 2.468670	 -3.551327	 3.927743
C	 2.397881	 -3.486546	 0.441931
H	 1.410496	 -2.370014	 1.993260
H	 3.152153	 -2.259527	 2.035096
C	 3.759490	 -4.096261	 0.111618
H	 2.180751	 -2.686696	 -0.258138
H	 1.625979	 -4.241740	 0.303596
C	 3.866765	 -4.722505	 -1.279987
H	 4.527841	 -3.334994	 0.222682
H	 3.983392	 -4.860958	 0.850248
C	 3.009841	 -5.968591	 -1.496077
H	 3.579314	 -3.974305	 -2.013538
H	 4.907636	 -4.961743	 -1.486161
C	 3.483501	 -7.168232	 -0.679428
H	 3.017850	 -6.229649	 -2.552133
H	 1.975080	 -5.759130	 -1.242308
C	 4.787405	 -7.768073	 -1.195101
H	 3.610487	 -6.868801	 0.357294
H	 2.710250	 -7.931867	 -0.682378
H	 5.589371	 -7.037552	 -1.174452
H	 5.096164	 -8.614511	 -0.592342
H	 4.682460	 -8.112344	 -2.218729

20 16 19 22 F
