%nprocshared=1
%mem=2GB
#HF/6-31G* nosymm scf=tight 

Mol

0 1
O	 1.846825	 1.296220	 0.000415
C	 1.705091	 0.115954	 0.001797
C	 0.381791	 -0.609817	 0.001258
O	 2.721346	 -0.737485	 -0.000216
C	 -0.823008	 0.326187	 0.001381
H	 0.371250	 -1.265087	 -0.865474
H	 0.370908	 -1.265746	 0.867490
C	 -0.449785	 1.752581	 0.407788
H	 -1.578755	 -0.063856	 0.675844
H	 -1.273243	 0.329709	 -0.986336
C	 -1.646828	 2.704898	 0.414127
H	 0.004435	 1.741892	 1.397518
H	 0.310076	 2.137214	 -0.270850
C	 -1.273078	 4.130228	 0.819093
H	 -2.405763	 2.323409	 1.093557
H	 -2.101113	 2.717335	 -0.574107
H	 -0.847321	 4.155396	 1.818248
H	 -2.142029	 4.780880	 0.813813
H	 -0.539846	 4.552307	 0.137529
C	 4.024888	 -0.184556	 -0.001949
H	 4.179030	 0.422472	 -0.882452
H	 4.701782	 -1.024608	 -0.003642
H	 4.181981	 0.421185	 0.878906

15 11 8 12 F
9 5 8 12 F
1 2 3 6 F
1 2 4 20 F
