%nprocshared=4
%mem=2GB
#HF/cc-pVTZ nosymm scf=tight opt=ModRedundant

Mol

0 1
H	 -3.332837	 0.481065	 1.305526
C	 -3.343012	 0.183553	 0.248044
C	 -2.548716	 1.074128	 -0.668396
O	 -3.956741	 -0.767445	 -0.092907
C	 -1.113875	 1.297077	 -0.181364
H	 -2.570898	 0.651009	 -1.664294
H	 -3.068004	 2.029472	 -0.699422
C	 -0.247837	 0.040196	 -0.230469
H	 -0.660995	 2.070859	 -0.791693
H	 -1.134800	 1.686935	 0.833410
C	 1.181757	 0.280428	 0.247371
H	 -0.229912	 -0.338635	 -1.248934
H	 -0.700494	 -0.742517	 0.372765
C	 2.151032	 -0.811012	 -0.202643
H	 1.515939	 1.247397	 -0.115449
H	 1.191514	 0.341223	 1.333422
C	 3.580021	 -0.656538	 0.320835
H	 2.170545	 -0.847575	 -1.289412
H	 1.766632	 -1.772905	 0.124928
C	 4.327657	 0.562694	 -0.213579
H	 4.138806	 -1.549270	 0.057813
H	 3.561991	 -0.620783	 1.406976
H	 4.355973	 0.557257	 -1.298551
H	 3.867136	 1.491650	 0.100501
H	 5.351524	 0.571613	 0.142204

12 8 11 14 F
