%nprocshared=4
%mem=2GB
#HF/cc-pVTZ nosymm scf=tight opt=ModRedundant

Mol

0 1
O	 0.192320	 1.392276	 -0.414581
C	 0.781622	 1.719742	 -1.387478
C	 1.784291	 0.874191	 -2.130000
O	 0.630629	 2.901797	 -1.962250
C	 1.318780	 -0.553395	 -2.378240
H	 2.005262	 1.383316	 -3.062423
H	 2.706133	 0.893179	 -1.557909
C	 -0.042819	 -0.608966	 -3.064517
H	 1.277376	 -1.084949	 -1.434307
H	 2.056607	 -1.069967	 -2.981610
C	 -1.198152	 -0.251981	 -2.133797
H	 -0.047823	 0.067956	 -3.915987
H	 -0.204835	 -1.605666	 -3.468964
C	 -2.558973	 -0.307027	 -2.819762
H	 -1.037858	 0.743716	 -1.730002
H	 -1.195111	 -0.928491	 -1.283806
H	 -2.605261	 0.384814	 -3.654297
H	 -3.355763	 -0.048382	 -2.132040
H	 -2.763938	 -1.300712	 -3.204228
C	 1.774850	 3.725117	 -2.063383
H	 2.168391	 3.953019	 -1.083894
H	 1.449161	 4.628457	 -2.553025
H	 2.542901	 3.240436	 -2.647673

1 2 4 20 F
