%nprocshared=1
%mem=2GB
#HF/6-31G* nosymm scf=tight opt=ModRedundant

Mol

0 1
H	 -2.646374	 -0.642757	 1.268656
C	 -2.083525	 -0.384536	 0.393091
O	 -0.807605	 -0.127164	 0.768327
F	 -2.118945	 -1.383102	 -0.486752
F	 -2.621877	 0.670592	 -0.209486
C	 0.084052	 0.273579	 -0.209957
C	 1.256999	 0.935445	 0.501584
Cl	 -0.681624	 1.405833	 -1.336436
H	 0.460650	 -0.554340	 -0.784847
F	 2.158419	 1.333468	 -0.370860
F	 1.822286	 0.051945	 1.299905
F	 0.882144	 1.964999	 1.220941

9 6 3 2 F
