%nprocshared=4
%mem=2GB
#HF/cc-pVTZ nosymm scf=tight opt=ModRedundant

Mol

0 1
O	 1.208983	 0.537218	 -0.990688
C	 1.704209	 0.119472	 -0.000093
C	 1.285749	 0.472418	 1.404172
O	 2.715427	 -0.733672	 0.000025
C	 0.123747	 1.453110	 1.469890
H	 1.044979	 -0.456775	 1.910215
H	 2.161191	 0.865756	 1.910462
C	 -0.272908	 1.787903	 2.904671
H	 -0.725738	 1.036536	 0.940631
H	 0.391686	 2.360522	 0.940643
C	 -1.436849	 2.770893	 2.990921
H	 -0.538022	 0.873362	 3.430579
H	 0.584284	 2.202243	 3.430773
C	 -1.833648	 3.105159	 4.424877
H	 -2.293862	 2.357650	 2.466597
H	 -1.172541	 3.685330	 2.467369
H	 -2.136681	 2.214426	 4.965247
H	 -2.661605	 3.804149	 4.450064
H	 -1.006618	 3.552968	 4.965915
C	 4.020999	 -0.192556	 0.000019
H	 4.182809	 0.412891	 -0.879449
H	 4.692590	 -1.035653	 0.000152
H	 4.182726	 0.413087	 0.879368

1 2 4 20 F
