%nprocshared=4
%mem=2GB
#HF/cc-pVTZ nosymm scf=tight opt=ModRedundant

Mol

0 1
H	 2.441813	 -1.482907	 0.994742
N	 1.462631	 -1.298903	 1.010695
C	 0.797480	 -1.970422	 -0.087704
C	 1.209399	 0.127791	 0.994578
H	 0.990447	 -3.034248	 -0.021448
H	 1.152423	 -1.624832	 -1.060433
C	 -0.697142	 -1.720444	 0.000000
H	 1.700852	 0.584379	 1.845080
H	 1.590368	 0.605947	 0.090228
C	 -0.285762	 0.375020	 1.080864
H	 -1.086008	 -2.203171	 0.901304
H	 -1.189886	 -2.172158	 -0.852805
N	 -0.976577	 -0.298712	 -0.000000
H	 -0.481053	 1.438458	 1.009591
H	 -0.646288	 0.036652	 2.056630
C	 -2.391156	 -0.021003	 -0.000000
H	 -2.853954	 -0.458728	 -0.875714
H	 -2.853954	 -0.458728	 0.875714
H	 -2.614037	 1.049773	 -0.000000

7 13 16 19 F
