%nprocshared=4
%mem=2GB
#HF/cc-pVTZ nosymm scf=tight opt=ModRedundant

Mol

0 1
H	 -0.750452	 0.829866	 1.329117
C	 0.277463	 0.893704	 0.990778
N	 0.526300	 -0.128137	 0.000000
H	 0.916420	 0.735221	 1.850229
H	 0.442724	 1.909182	 0.624628
C	 -0.247113	 0.037112	 -1.209233
H	 1.498142	 -0.159404	 -0.219555
H	 -0.996493	 -0.743733	 -1.271440
H	 0.397975	 -0.057351	 -2.073512
H	 -0.763794	 0.997171	 -1.271673

2 3 6 8 F
