%nprocshared=4
%mem=2GB
#HF/cc-pVTZ nosymm scf=tight opt=ModRedundant

Mol

0 1
H	 -3.294565	 0.569785	 0.000000
C	 -2.246225	 0.343737	 0.000000
C	 -1.809462	 -0.973484	 0.000000
C	 -1.312577	 1.353775	 0.000000
H	 -2.523539	 -1.775124	 0.000000
C	 -0.467257	 -1.267606	 0.000000
H	 -1.631287	 2.379013	 0.000000
C	 0.046966	 1.074396	 0.000000
H	 -0.119372	 -2.281828	 0.000000
C	 0.471772	 -0.241514	 0.000000
H	 0.748162	 1.882966	 0.000000
O	 1.760432	 -0.625184	 0.000000
C	 2.692837	 0.063732	 0.777287
H	 2.770542	 1.102828	 0.477371
H	 3.642535	 -0.421073	 0.614793
H	 2.446202	 0.013444	 1.831967

13 12 10 8 F
