%nprocshared=1
%mem=2GB
#HF/6-31G* nosymm scf=tight opt=ModRedundant

Mol

0 1
H	 -1.948992	 -0.412645	 -2.779895
N	 -1.017891	 -0.554445	 -2.439427
C	 -1.030868	 -1.335106	 -1.214885
H	 -0.626287	 0.348883	 -2.255703
C	 0.381361	 -1.506020	 -0.695721
H	 -1.638182	 -0.897166	 -0.421550
H	 -1.439630	 -2.316862	 -1.433630
O	 0.874168	 -0.245412	 -0.342030
H	 0.386619	 -2.166672	 0.170968
H	 1.003819	 -1.951156	 -1.468789
C	 2.202317	 -0.244239	 0.074611
H	 2.711377	 -1.041390	 -0.449894
H	 2.692099	 0.699270	 -0.159667
H	 2.283185	 -0.418429	 1.145558

5 8 11 13 F
