%nprocshared=4
%mem=2GB
#HF/cc-pVTZ nosymm scf=tight opt=ModRedundant

Mol

0 1
O	 1.718710	 1.449112	 -2.058049
C	 0.781622	 1.719742	 -1.387478
C	 -0.518669	 0.958420	 -1.351787
O	 0.756178	 2.753029	 -0.561592
C	 -0.824290	 0.329213	 -0.000115
H	 -1.301960	 1.647247	 -1.650821
H	 -0.472151	 0.207303	 -2.133516
C	 -2.146151	 -0.432825	 -0.000068
H	 -0.845792	 1.103902	 0.757954
H	 -0.014874	 -0.337531	 0.274818
C	 -3.366283	 0.483552	 0.000557
H	 -2.189286	 -1.084450	 -0.869996
H	 -2.188867	 -1.085083	 0.869399
C	 -4.687436	 -0.278003	 0.000108
H	 -3.325150	 1.134819	 -0.867957
H	 -3.325087	 1.133730	 0.869885
H	 -4.773783	 -0.912098	 -0.876078
H	 -5.531922	 0.401392	 0.000363
H	 -4.773901	 -0.912898	 0.875703
C	 1.915632	 3.558254	 -0.493736
H	 2.765137	 2.976774	 -0.167494
H	 1.698029	 4.333535	 0.222808
H	 2.135210	 3.992529	 -1.457792

1 2 3 6 F
