%nprocshared=4
%mem=2GB
#HF/cc-pVTZ nosymm scf=tight opt=ModRedundant

Mol

0 1
H	 2.614283	 2.028610	 0.296620
O	 3.358864	 1.662087	 -0.142800
C	 3.565468	 0.338079	 0.273842
C	 2.334364	 -0.299741	 0.900145
H	 3.844898	 -0.211127	 -0.615130
H	 4.405801	 0.283982	 0.963308
C	 1.896417	 0.340875	 2.215312
H	 1.520115	 -0.256135	 0.183030
H	 2.551762	 -1.351948	 1.067466
C	 0.678252	 -0.346289	 2.830710
H	 1.673179	 1.389092	 2.046758
H	 2.721443	 0.306701	 2.924854
C	 0.240402	 0.207985	 4.187664
H	 -0.154318	 -0.288105	 2.133810
H	 0.900749	 -1.403336	 2.947398
C	 -0.309451	 1.632932	 4.157136
H	 -0.524345	 -0.448599	 4.593355
H	 1.076940	 0.160169	 4.881258
C	 -0.824124	 2.103795	 5.515005
H	 -1.116536	 1.689539	 3.429896
H	 0.456957	 2.321972	 3.815309
C	 -1.370384	 3.527457	 5.488922
H	 -1.601216	 1.426545	 5.858573
H	 -0.021255	 2.039834	 6.244643
H	 -2.196721	 3.616844	 4.791488
H	 -1.729246	 3.828763	 6.466439
H	 -0.605805	 4.234974	 5.185294

4 3 2 1 F
