%nprocshared=4
%mem=2GB
#HF/cc-pVTZ nosymm scf=tight opt=ModRedundant

Mol

0 1
H	 5.269878	 0.195679	 1.068175
C	 4.673900	 -0.208485	 0.258034
C	 3.190199	 -0.204714	 0.610086
H	 4.865136	 0.391893	 -0.624684
H	 5.027838	 -1.214511	 0.056939
C	 2.319208	 -0.778154	 -0.505491
H	 2.876954	 0.809861	 0.827925
H	 3.035335	 -0.782733	 1.518235
C	 0.843522	 -0.410709	 -0.386241
H	 2.690316	 -0.439993	 -1.465051
H	 2.402250	 -1.861129	 -0.498214
C	 0.524266	 1.041897	 -0.696878
H	 0.258284	 -1.004319	 -1.084016
H	 0.460523	 -0.654688	 0.600321
C	 -0.814464	 1.579017	 -0.229249
O	 1.280717	 1.731731	 -1.301183
C	 -2.017793	 0.892133	 -0.883886
H	 -0.825018	 2.638117	 -0.448419
H	 -0.874193	 1.459563	 0.849342
C	 -3.344845	 1.519086	 -0.464921
H	 -1.918115	 0.951453	 -1.964229
H	 -2.028581	 -0.163166	 -0.630453
C	 -4.550597	 0.849471	 -1.115231
H	 -3.337139	 2.574822	 -0.718761
H	 -3.440805	 1.465441	 0.616045
H	 -4.498285	 0.914790	 -2.196748
H	 -4.606186	 -0.201136	 -0.850288
H	 -5.475196	 1.318771	 -0.800296

10 6 3 2 F
