%nprocshared=4
%mem=2GB
#HF/cc-pVTZ nosymm scf=tight opt=ModRedundant

Mol

0 1
O	 0.673648	 2.687374	 -1.264911
C	 1.308491	 2.134684	 -0.426496
C	 0.634575	 1.277495	 0.626647
C	 2.814211	 2.239451	 -0.375494
C	 0.376695	 -0.140025	 0.100361
H	 -0.307178	 1.748252	 0.878840
H	 1.244712	 1.233026	 1.522538
C	 1.630207	 -0.772146	 -0.501001
H	 0.002687	 -0.743040	 0.918114
H	 -0.406410	 -0.114271	 -0.653550
C	 2.907848	 -0.545876	 0.309149
H	 1.772784	 -0.391628	 -1.509394
H	 1.468529	 -1.842059	 -0.599744
C	 3.373802	 0.906639	 0.372125
H	 3.699140	 -1.146831	 -0.127906
H	 2.764321	 -0.923458	 1.318191
H	 3.519798	 1.311927	 -0.623875
H	 4.316899	 0.983758	 0.900700
H	 2.661122	 1.540651	 0.885346
H	 3.103299	 2.795690	 0.510521
H	 3.181889	 2.745933	 -1.254617
H	 3.264051	 1.256049	 -0.297039

3 5 8 12 F
