%nprocshared=4
%mem=2GB
#HF/cc-pVTZ nosymm scf=tight opt=ModRedundant

Mol

0 1
O	 -2.374409	 1.338660	 -0.336961
C	 -2.104891	 0.204655	 -0.107126
C	 -0.881910	 -0.448129	 -0.720509
C	 -2.949910	 -0.638219	 0.818225
C	 -0.753328	 -1.908820	 -0.270297
H	 -0.013847	 0.110383	 -0.393948
H	 -0.932130	 -0.398860	 -1.803059
C	 0.479233	 -2.590949	 -0.860212
H	 -0.716623	 -1.928716	 0.811593
H	 -1.641970	 -2.462409	 -0.563814
C	 0.626540	 -4.068060	 -0.490956
H	 1.369679	 -2.052128	 -0.545954
H	 0.439634	 -2.507644	 -1.942846
C	 0.887538	 -4.331895	 0.989973
H	 1.446489	 -4.483331	 -1.068487
H	 -0.264949	 -4.606242	 -0.802307
H	 1.770719	 -3.800902	 1.330014
H	 1.049569	 -5.388695	 1.167992
H	 0.056197	 -4.021673	 1.611193
H	 -3.440322	 -1.417144	 0.243099
H	 -3.694377	 -0.025850	 1.303346
H	 -2.331085	 -1.129829	 1.560495

6 3 2 1 F
