%nprocshared=1
%mem=2GB
#HF/6-31G* nosymm scf=tight opt=ModRedundant

Mol

0 1
O	 0.986664	 0.274161	 -0.931987
C	 1.705091	 0.115954	 0.001797
C	 1.595121	 0.831865	 1.325899
O	 2.721346	 -0.737485	 -0.000216
C	 0.439081	 1.825794	 1.383518
H	 1.501126	 0.073352	 2.098258
H	 2.546640	 1.323552	 1.509135
C	 0.350659	 2.535490	 2.735395
H	 -0.490905	 1.304852	 1.178741
H	 0.556199	 2.556975	 0.589814
C	 -0.804221	 3.535686	 2.811022
H	 0.236915	 1.796750	 3.527431
H	 1.287019	 3.054002	 2.936037
C	 -0.891316	 4.245362	 4.161587
H	 -1.740635	 3.018778	 2.613346
H	 -0.691535	 4.274805	 2.020994
H	 -1.039072	 3.534405	 4.969623
H	 -1.718955	 4.947479	 4.183894
H	 0.018628	 4.800080	 4.372773
C	 4.024888	 -0.184556	 -0.001949
H	 4.179030	 0.422472	 -0.882452
H	 4.701782	 -1.024608	 -0.003642
H	 4.181981	 0.421185	 0.878906

1 2 4 20 F
