%nprocshared=4
%mem=2GB
#HF/cc-pVTZ nosymm scf=tight 
prop=(read,field)

Mol

0 1
H	 -1.153498	 -1.506040	 0.000000
C	 -0.072644	 -1.459576	 0.000000
C	 0.366840	 -0.024419	 0.000000
H	 0.306541	 -1.958786	 -0.881562
H	 0.306541	 -1.958786	 0.881562
F	 -0.116854	 0.610266	 -1.076201
F	 -0.116854	 0.610266	 1.076201
H	 1.440356	 0.098865	 0.000000

@grid.dat /N
