%nprocshared=4
%mem=2GB
#HF/6-31G* nosymm scf=tight opt=ModRedundant

Mol

0 1
H	 -1.836216	 1.387520	 -0.000064
C	 -1.301823	 0.443321	 -0.000031
O	 -0.003969	 0.658512	 0.000451
O	 -1.829879	 -0.616434	 -0.000857
C	 0.509653	 1.569020	 0.972230
C	 2.007924	 1.647286	 0.773789
H	 0.253317	 1.207353	 1.958539
H	 0.035104	 2.530859	 0.834515
H	 2.465231	 0.673637	 0.907619
H	 2.439584	 2.331942	 1.496387
H	 2.246131	 2.003536	 -0.221817

5 3 2 4 F
