%nprocshared=4
%mem=2GB
#HF/cc-pVTZ nosymm scf=tight opt=ModRedundant

Mol

0 1
H	 1.857177	 -2.852937	 0.295153
C	 1.539407	 -1.937829	 -0.193092
C	 0.490689	 -1.227528	 0.651992
H	 1.130900	 -2.189816	 -1.163940
H	 2.420753	 -1.328676	 -0.350877
N	 0.000297	 0.000045	 0.046090
H	 -0.345002	 -1.900886	 0.783617
H	 0.886798	 -1.038030	 1.653550
C	 -1.359159	 0.315706	 0.454404
C	 0.911129	 1.116915	 0.239761
C	 -2.416729	 -0.286720	 -0.460525
H	 -1.478729	 1.390261	 0.442008
H	 -1.539692	 0.003361	 1.486761
C	 0.821773	 2.163375	 -0.862680
H	 1.922253	 0.734300	 0.256898
H	 0.749833	 1.588451	 1.213183
H	 -2.285276	 0.073129	 -1.473515
H	 -2.371743	 -1.368476	 -0.483209
H	 -3.408658	 -0.007405	 -0.121593
H	 1.048628	 1.716815	 -1.822903
H	 -0.163371	 2.608474	 -0.927131
H	 1.530943	 2.963346	 -0.678462

3 6 9 11 F
