%nprocshared=4
%mem=2GB
#HF/cc-pVTZ nosymm scf=tight opt=ModRedundant

Mol

0 1
H	 0.372786	 -3.063731	 -4.270100
O	 1.311417	 -3.054546	 -4.296892
C	 1.799065	 -1.830421	 -3.814203
C	 1.658666	 -1.673376	 -2.307448
H	 2.845903	 -1.802073	 -4.084955
H	 1.312159	 -1.000761	 -4.323160
C	 0.214485	 -1.611354	 -1.815164
H	 2.174607	 -2.497936	 -1.824682
H	 2.177171	 -0.762872	 -2.016704
C	 0.083526	 -0.935709	 -0.450909
H	 -0.189283	 -2.616839	 -1.760636
H	 -0.390394	 -1.070059	 -2.540703
C	 -1.350654	 -0.779760	 0.058070
H	 0.665197	 -1.491970	 0.280159
H	 0.536027	 0.050337	 -0.509419
C	 -2.221805	 0.182096	 -0.747952
H	 -1.822132	 -1.758647	 0.053931
H	 -1.329367	 -0.460399	 1.097643
C	 -3.668309	 0.227734	 -0.262204
H	 -2.205643	 -0.112421	 -1.795075
H	 -1.807316	 1.184877	 -0.707532
C	 -4.539968	 1.189915	 -1.062399
H	 -4.095008	 -0.770286	 -0.311813
H	 -3.685690	 0.513614	 0.786144
H	 -4.569203	 0.911862	 -2.110764
H	 -5.559392	 1.195977	 -0.693827
H	 -4.160845	 2.204778	 -1.001802

10 7 4 8 F
