%nprocshared=1
%mem=2GB
#HF/6-31G* nosymm scf=tight 

Mol

0 1
H	 0.591160	 -4.632793	 -3.113807
O	 1.523634	 -4.514343	 -3.221206
C	 1.810940	 -3.149842	 -3.393389
C	 1.665927	 -2.338475	 -2.110665
H	 2.835598	 -3.106236	 -3.739580
H	 1.186322	 -2.725003	 -4.178337
C	 0.238577	 -2.295256	 -1.559601
H	 2.333910	 -2.755487	 -1.361488
H	 2.007235	 -1.324143	 -2.310680
C	 0.115918	 -1.429151	 -0.302766
H	 -0.088828	 -3.306882	 -1.336478
H	 -0.433940	 -1.909727	 -2.326040
C	 -1.309753	 -1.282496	 0.241564
H	 0.758466	 -1.835605	 0.476191
H	 0.502505	 -0.437192	 -0.526972
C	 -2.037799	 -0.007733	 -0.193645
H	 -1.890610	 -2.142323	 -0.085726
H	 -1.285946	 -1.330893	 1.329189
C	 -3.489788	 0.042957	 0.286558
H	 -2.017067	 0.064384	 -1.280144
H	 -1.513726	 0.868678	 0.179924
C	 -4.216917	 1.317354	 -0.141063
H	 -4.025645	 -0.823308	 -0.095450
H	 -3.513059	 -0.038752	 1.371301
H	 -4.239342	 1.411634	 -1.223113
H	 -5.243387	 1.322503	 0.212445
H	 -3.726170	 2.201406	 0.256408

14 10 7 4 F
10 7 4 8 F
8 4 3 2 F
10 13 16 20 F
20 16 19 22 F
4 3 2 1 F
