%nprocshared=4
%mem=2GB
#HF/cc-pVTZ nosymm scf=tight opt=ModRedundant

Mol

0 1
H	 -2.644180	 -0.653737	 1.272255
C	 -2.092774	 -0.380414	 0.391915
O	 -0.808934	 -0.154049	 0.752536
F	 -2.163230	 -1.351640	 -0.507133
F	 -2.627232	 0.691260	 -0.169301
C	 -0.029970	 -1.228868	 1.123050
C	 -0.152986	 -2.282793	 0.025150
Cl	 -0.561915	 -1.901805	 2.675381
H	 1.009643	 -0.970757	 1.224191
F	 0.578807	 -3.329623	 0.310893
F	 0.287165	 -1.777698	 -1.102884
F	 -1.386091	 -2.669884	 -0.153355

6 3 2 4 F
