%nprocshared=4
%mem=2GB
#HF/cc-pVTZ nosymm scf=tight opt=ModRedundant

Mol

0 1
O	 -1.650824	 -1.270720	 2.044353
C	 -1.523129	 -1.436538	 0.878753
C	 -1.401850	 -2.791816	 0.236261
O	 -1.481217	 -0.452708	 0.001092
H	 -2.280581	 -3.370992	 0.486197
H	 -1.298420	 -2.722323	 -0.834772
H	 -0.543691	 -3.297000	 0.658667
C	 -0.332055	 0.384012	 -0.000250
C	 0.892252	 -0.506059	 -0.000295
H	 -0.360822	 1.020205	 -0.874146
H	 -0.359817	 1.021310	 0.872861
C	 2.188199	 0.299473	 -0.001416
H	 0.857046	 -1.152781	 -0.871031
H	 0.857910	 -1.151798	 0.871202
C	 2.481997	 0.957193	 -1.346857
H	 2.139131	 1.066302	 0.767702
H	 3.018304	 -0.348909	 0.267841
C	 1.331655	 1.819959	 -1.854162
H	 2.706303	 0.187697	 -2.080082
H	 3.377869	 1.565420	 -1.259908
H	 0.429249	 1.232088	 -1.984226
H	 1.572135	 2.271670	 -2.809480
H	 1.105807	 2.620299	 -1.157526

1 2 4 8 F
