%nprocshared=1
%mem=2GB
#HF/6-31G* nosymm scf=tight 

Mol

0 1
O	 0.398782	 0.250070	 0.934403
C	 1.122059	 0.121804	 -0.000188
C	 0.983542	 0.836322	 -1.322372
O	 2.172624	 -0.688929	 0.000216
C	 -0.211538	 1.782931	 -1.377674
H	 1.914473	 1.366569	 -1.503922
H	 0.920345	 0.076773	 -2.096869
C	 -0.328723	 2.493115	 -2.727219
H	 -0.124857	 2.516415	 -0.582066
H	 -1.120427	 1.224811	 -1.175369
C	 -1.524272	 3.442589	 -2.791753
H	 0.584821	 3.050126	 -2.925343
H	 -0.412694	 1.753585	 -3.521017
H	 -1.452159	 4.215063	 -2.031662
H	 -1.584218	 3.933135	 -3.758214
H	 -2.456821	 2.909168	 -2.632213
C	 3.452279	 -0.082609	 0.000533
H	 3.583069	 0.529321	 -0.880332
H	 4.163299	 -0.894027	 0.001117
H	 3.582335	 0.529955	 0.881077

9 5 8 12 F
1 2 3 6 F
9 5 3 6 F
