%nprocshared=4
%mem=2GB
#HF/cc-pVTZ nosymm scf=tight opt=ModRedundant

Mol

0 1
H	 -2.644180	 -0.653737	 1.272255
C	 -2.092774	 -0.380414	 0.391915
O	 -0.808934	 -0.154049	 0.752536
F	 -2.163230	 -1.351640	 -0.507133
F	 -2.627232	 0.691260	 -0.169301
C	 -0.564399	 0.496716	 1.942497
C	 -1.359972	 -0.222820	 3.029055
Cl	 -1.054589	 2.198962	 1.855255
H	 0.475097	 0.475567	 2.219350
F	 -1.158815	 0.340501	 4.193197
F	 -0.949829	 -1.466695	 3.105696
F	 -2.641146	 -0.228812	 2.782458

6 3 2 4 F
