%nprocshared=4
%mem=2GB
#HF/6-31G* nosymm scf=tight opt=ModRedundant

Mol

0 1
O	 -2.042549	 -1.228399	 -0.269030
C	 -1.653912	 -0.146171	 0.050137
C	 -0.332303	 0.024011	 0.778412
C	 -2.438579	 1.106236	 -0.272369
C	 0.783137	 0.433300	 -0.196343
H	 -0.424542	 0.765418	 1.567203
H	 -0.083600	 -0.927445	 1.235357
C	 2.140203	 0.585880	 0.492223
H	 0.520746	 1.371042	 -0.683040
H	 0.850293	 -0.315672	 -0.979716
C	 3.253086	 0.984110	 -0.476339
H	 2.063534	 1.330566	 1.281520
H	 2.401787	 -0.350846	 0.978728
H	 3.036240	 1.935291	 -0.954131
H	 3.375239	 0.241320	 -1.259144
H	 4.203523	 1.081960	 0.038562
H	 -3.277823	 0.863061	 -0.908988
H	 -1.806773	 1.843019	 -0.759671
H	 -2.802853	 1.554979	 0.648059

5 3 2 4 F
