%nprocshared=1
%mem=2GB
#HF/6-31G* nosymm scf=tight opt=ModRedundant

Mol

0 1
O	 0.625848	 1.349995	 -0.000749
C	 0.486307	 0.169203	 0.000779
C	 1.608116	 -0.841643	 0.000302
O	 -0.698257	 -0.426125	 0.001050
C	 2.990107	 -0.200498	 -0.000684
H	 1.468623	 -1.481519	 -0.865924
H	 1.469683	 -1.481289	 0.866878
H	 3.129736	 0.423364	 -0.875135
H	 3.757882	 -0.966877	 -0.001197
H	 3.130964	 0.423383	 0.873533
C	 -1.092457	 -1.107270	 -1.185562
C	 -2.464193	 -1.697367	 -0.935685
H	 -0.362959	 -1.873075	 -1.411304
H	 -1.102970	 -0.405263	 -2.008160
H	 -2.437929	 -2.394048	 -0.105562
H	 -2.804496	 -2.228150	 -1.818924
H	 -3.182094	 -0.918268	 -0.705730

11 4 2 3 F
