%nprocshared=1
%mem=2GB
#HF/6-31G* nosymm scf=tight opt=ModRedundant

Mol

0 1
O	 0.911081	 0.913022	 -0.861875
C	 1.122059	 0.121804	 -0.000188
C	 0.259367	 -0.100813	 1.218047
O	 2.172624	 -0.688929	 0.000216
C	 -0.964933	 0.807984	 1.268240
H	 -0.027717	 -1.148803	 1.225432
H	 0.889570	 0.038982	 2.092150
C	 -1.820853	 0.562192	 2.511765
H	 -1.561781	 0.654896	 0.374460
H	 -0.643168	 1.844457	 1.241929
C	 -3.049010	 1.469474	 2.570704
H	 -2.139902	 -0.477907	 2.533619
H	 -1.217307	 0.714401	 3.404309
H	 -3.690844	 1.315990	 1.708065
H	 -3.638431	 1.274839	 3.461195
H	 -2.761642	 2.516774	 2.585603
C	 3.452279	 -0.082609	 0.000533
H	 3.583069	 0.529321	 -0.880332
H	 4.163299	 -0.894027	 0.001117
H	 3.582335	 0.529955	 0.881077

1 2 4 17 F
