%nprocshared=4
%mem=2GB
#HF/cc-pVTZ nosymm scf=tight opt=ModRedundant

Mol

0 1
O	 -2.440701	 -0.934798	 -0.415053
C	 -1.922978	 0.063265	 -0.045005
C	 -2.632749	 1.372204	 0.158357
O	 -0.637375	 0.157174	 0.243149
H	 -2.187724	 2.129143	 -0.474664
H	 -3.677681	 1.257276	 -0.079438
H	 -2.516788	 1.693160	 1.185542
C	 0.162530	 -1.009518	 0.097799
C	 1.587210	 -0.664190	 0.477086
H	 0.096803	 -1.356267	 -0.924704
H	 -0.233803	 -1.785900	 0.736810
C	 2.632831	 -1.633690	 -0.067442
H	 1.637549	 -0.647117	 1.562402
H	 1.806421	 0.344056	 0.139115
C	 4.051011	 -1.269542	 0.358911
H	 2.399608	 -2.638411	 0.274963
H	 2.574026	 -1.655480	 -1.149528
H	 4.771715	 -1.975216	 -0.037315
H	 4.149076	 -1.268537	 1.439547
H	 4.325094	 -0.282241	 0.002356

12 9 8 10 F
