%nprocshared=4
%mem=2GB
#HF/cc-pVTZ nosymm scf=tight opt=ModRedundant

Mol

0 1
H	 -0.793904	 0.165123	 2.676474
O	 0.059473	 0.115309	 2.284405
C	 0.121398	 0.965918	 1.181564
C	 -0.793473	 0.591216	 0.050087
H	 1.147314	 0.942435	 0.833356
H	 -0.083260	 1.994422	 1.473100
C	 -1.534243	 -0.493009	 -0.013340
H	 -0.814917	 1.298265	 -0.762851
H	 -1.101195	 -1.466332	 -0.144046
H	 -2.604242	 -0.437780	 0.050785

3 4 7 9 F
