%nprocshared=4
%mem=2GB
#HF/cc-pVTZ nosymm scf=tight opt=ModRedundant

Mol

0 1
O	 -2.071633	 -1.227563	 -0.223463
C	 -1.652164	 -0.152425	 0.058082
C	 -0.327811	 0.006324	 0.778296
C	 -2.402515	 1.108629	 -0.298924
C	 -0.356201	 -0.688064	 2.145206
H	 0.478220	 -0.399814	 0.176223
H	 -0.152728	 1.066157	 0.912227
C	 0.954860	 -0.535561	 2.910771
H	 -0.573723	 -1.745307	 2.016306
H	 -1.170701	 -0.272738	 2.728694
C	 0.926946	 -1.213866	 4.276159
H	 1.767734	 -0.947586	 2.319166
H	 1.173143	 0.520880	 3.036565
H	 0.745165	 -2.279200	 4.181013
H	 0.143717	 -0.800171	 4.902080
H	 1.868993	 -1.084641	 4.796015
H	 -3.240910	 0.874416	 -0.936711
H	 -1.747554	 1.818823	 -0.790984
H	 -2.760419	 1.579708	 0.610998

5 3 2 4 F
