%nprocshared=1
%mem=2GB
#HF/6-31G* nosymm scf=tight opt=ModRedundant

Mol

0 1
H	 -3.261111	 -0.295142	 1.469456
C	 -3.306842	 -0.277400	 0.373456
C	 -2.660244	 0.921717	 -0.272021
O	 -3.838538	 -1.161155	 -0.216482
C	 -3.660668	 2.052885	 -0.547461
H	 -1.846880	 1.254635	 0.362260
H	 -2.231787	 0.585030	 -1.215272
C	 -4.222477	 2.693898	 0.724062
H	 -3.165355	 2.811964	 -1.145581
H	 -4.477621	 1.671845	 -1.158323
C	 -5.209056	 3.826866	 0.434475
H	 -3.398809	 3.074176	 1.324734
H	 -4.714121	 1.937256	 1.332600
C	 -5.756658	 4.476304	 1.708175
H	 -4.715873	 4.574193	 -0.181969
H	 -6.038285	 3.440517	 -0.156708
C	 -6.811994	 5.562280	 1.469444
H	 -4.931862	 4.897322	 2.281019
H	 -6.194791	 3.701035	 2.333242
C	 -6.288865	 6.811781	 0.759018
H	 -7.225218	 5.856235	 2.431101
H	 -7.638779	 5.142194	 0.900344
H	 -5.449962	 7.244516	 1.297767
H	 -5.957563	 6.596276	 -0.251314
H	 -7.063807	 7.569394	 0.692068

6 3 2 4 F
