%nprocshared=1
%mem=2GB
#HF/6-31G* nosymm scf=tight 

Mol

0 1
H	 -3.420663	 1.227371	 -1.044276
O	 -3.452007	 0.283848	 -0.965577
C	 -3.181085	 -0.079926	 0.364119
C	 -1.765924	 0.277073	 0.805136
H	 -3.327791	 -1.152017	 0.410903
H	 -3.905698	 0.375695	 1.036898
C	 -0.677594	 -0.417312	 -0.014550
H	 -1.637766	 1.358238	 0.744969
H	 -1.659588	 0.017670	 1.857098
C	 0.738335	 -0.034840	 0.421385
H	 -0.814977	 -0.178223	 -1.064632
H	 -0.802730	 -1.495410	 0.071702
C	 1.367308	 -1.064374	 1.364007
H	 1.359521	 0.087751	 -0.462650
H	 0.715417	 0.935750	 0.915384
C	 2.752180	 -0.682436	 1.899178
H	 1.432067	 -2.025090	 0.855552
H	 0.700042	 -1.214502	 2.210195
C	 3.848894	 -0.615095	 0.834711
H	 3.042798	 -1.410509	 2.652665
H	 2.687855	 0.274967	 2.412445
H	 3.927723	 -1.555669	 0.295966
H	 4.814507	 -0.413429	 1.288317
H	 3.662027	 0.168083	 0.107472

20 16 13 17 F
17 13 10 7 F
11 7 4 3 F
1 2 3 5 F
7 4 3 2 F
