%nprocshared=1
%mem=2GB
#HF/6-31G* nosymm scf=tight 

Mol

0 1
H	 -3.892951	 0.981613	 -0.358725
C	 -3.196921	 0.361773	 0.172313
C	 -2.076860	 -0.007332	 -0.404944
H	 -3.439953	 0.057760	 1.173024
O	 -2.021685	 -0.344822	 -1.720207
H	 -1.138224	 -0.045953	 0.119142
C	 -0.844775	 -0.890051	 -2.209550
C	 -0.800879	 -2.389306	 -2.018234
H	 0.034070	 -0.463752	 -1.738810
H	 -0.805198	 -0.690302	 -3.270220
F	 0.322763	 -2.866704	 -2.533331
F	 -0.828803	 -2.721723	 -0.738175
F	 -1.808821	 -2.993816	 -2.612381

11 8 7 9 F
3 5 7 9 F
6 3 5 7 F
