%nprocshared=1
%mem=2GB
#HF/6-31G* nosymm scf=tight opt=ModRedundant

Mol

0 1
H	 1.807615	 -3.057987	 -1.500355
O	 2.623847	 -2.713899	 -1.832680
C	 2.392867	 -2.025790	 -3.035680
C	 1.692344	 -0.686193	 -2.837000
H	 3.368955	 -1.866133	 -3.475493
H	 1.824668	 -2.647080	 -3.727004
C	 0.278850	 -0.802382	 -2.261324
H	 2.303801	 -0.071118	 -2.181890
H	 1.650212	 -0.179546	 -3.799757
C	 -0.417363	 0.554609	 -2.124653
H	 0.327821	 -1.284611	 -1.288996
H	 -0.321118	 -1.448672	 -2.902174
C	 -1.867748	 0.487535	 -1.632488
H	 0.161129	 1.187872	 -1.454449
H	 -0.405234	 1.048957	 -3.093763
C	 -2.037799	 -0.007733	 -0.193645
H	 -2.301294	 1.482433	 -1.710140
H	 -2.445834	 -0.146576	 -2.302978
C	 -3.489788	 0.042957	 0.286558
H	 -1.419914	 0.596260	 0.469320
H	 -1.673729	 -1.028347	 -0.103628
C	 -4.216917	 1.317354	 -0.141063
H	 -4.025645	 -0.823308	 -0.095450
H	 -3.513059	 -0.038752	 1.371301
H	 -4.239342	 1.411634	 -1.223113
H	 -5.243387	 1.322503	 0.212445
H	 -3.726170	 2.201406	 0.256408

20 16 19 22 F
