%nprocshared=1
%mem=2GB
#HF/6-31G* nosymm scf=tight 

Mol

0 1
O	 0.625848	 1.349995	 -0.000749
C	 0.486307	 0.169203	 0.000779
C	 1.608116	 -0.841643	 0.000302
O	 -0.698257	 -0.426125	 0.001050
C	 2.990107	 -0.200498	 -0.000684
H	 1.468623	 -1.481519	 -0.865924
H	 1.469683	 -1.481289	 0.866878
H	 3.129736	 0.423364	 -0.875135
H	 3.757882	 -0.966877	 -0.001197
H	 3.130964	 0.423383	 0.873533
C	 -0.727539	 -1.832731	 0.220143
C	 -2.176773	 -2.268757	 0.176410
H	 -0.273488	 -2.049923	 1.177353
H	 -0.139787	 -2.321108	 -0.545119
H	 -2.752964	 -1.766722	 0.945254
H	 -2.245523	 -3.339394	 0.339689
H	 -2.618618	 -2.039489	 -0.786640

2 4 11 13 F
4 2 3 6 F
