%nprocshared=1
%mem=2GB
#HF/6-31G* nosymm scf=tight 

Mol

0 1
H	 -3.621319	 1.856435	 -1.241613
O	 -2.909927	 1.277372	 -1.475092
C	 -1.992113	 1.205279	 -0.414427
C	 -0.867754	 0.269961	 -0.822768
H	 -1.591903	 2.192259	 -0.186372
H	 -2.477089	 0.833795	 0.487315
C	 0.198102	 0.111031	 0.262842
H	 -0.418748	 0.653025	 -1.735120
H	 -1.299269	 -0.696264	 -1.069102
C	 1.331804	 -0.827780	 -0.158768
H	 0.601355	 1.089119	 0.513651
H	 -0.263176	 -0.273082	 1.171797
C	 2.723619	 -0.410569	 0.329459
H	 1.342964	 -0.912588	 -1.244120
H	 1.116806	 -1.824343	 0.220779
C	 3.243875	 0.895854	 -0.272975
H	 3.424222	 -1.207124	 0.091250
H	 2.714788	 -0.329854	 1.414619
H	 3.251977	 0.848779	 -1.358681
H	 2.637085	 1.747371	 0.016682
H	 4.259473	 1.094070	 0.055697

2 3 4 8 F
8 4 7 10 F
16 13 10 14 F
1 2 3 5 F
