%nprocshared=1
%mem=2GB
#HF/6-31G* nosymm scf=tight opt=ModRedundant

Mol

0 1
O	 3.369247	 -3.183887	 0.879854
C	 2.777449	 -2.162209	 0.741981
C	 1.310924	 -1.948747	 1.029259
O	 3.347903	 -1.046386	 0.304773
C	 0.612333	 -3.203820	 1.547794
H	 1.240835	 -1.124623	 1.731468
H	 0.849778	 -1.595758	 0.110325
C	 -0.897816	 -3.032878	 1.744573
H	 1.072673	 -3.510318	 2.482280
H	 0.789936	 -4.012697	 0.847366
C	 -1.297589	 -2.048591	 2.847511
H	 -1.319321	 -4.007531	 1.979323
H	 -1.353530	 -2.726068	 0.804253
C	 -2.809130	 -1.996007	 3.078766
H	 -0.801584	 -2.330125	 3.775161
H	 -0.944803	 -1.049077	 2.603616
C	 -3.220684	 -1.011820	 4.175183
H	 -3.168430	 -2.990803	 3.336678
H	 -3.306487	 -1.724996	 2.148772
C	 -4.731352	 -0.968157	 4.402505
H	 -2.723791	 -1.280581	 5.104972
H	 -2.866198	 -0.016085	 3.917052
H	 -4.991569	 -0.261974	 5.184937
H	 -5.111865	 -1.942330	 4.696429
H	 -5.255305	 -0.668684	 3.499143
C	 4.728119	 -1.109107	 -0.004993
H	 4.882018	 -1.033965	 -1.071845
H	 5.068212	 -2.067527	 0.355250
H	 5.265056	 -0.311663	 0.488280

2 4 26 27 F
