%nprocshared=4
%mem=2GB
#HF/6-31G* nosymm scf=tight opt=ModRedundant

Mol

0 1
O	 1.846825	 1.296220	 0.000415
C	 1.705091	 0.115954	 0.001797
C	 0.381791	 -0.609817	 0.001258
O	 2.721346	 -0.737485	 -0.000216
C	 -0.823008	 0.326187	 0.001381
H	 0.371250	 -1.265087	 -0.865474
H	 0.370908	 -1.265746	 0.867490
C	 -1.624954	 0.240161	 -1.298059
H	 -0.484086	 1.345240	 0.159025
H	 -1.461750	 0.086827	 0.845789
C	 -2.836856	 1.173354	 -1.315444
H	 -0.978040	 0.477742	 -2.141299
H	 -1.959960	 -0.784560	 -1.451681
C	 -3.638430	 1.086062	 -2.613562
H	 -2.503626	 2.197739	 -1.164669
H	 -3.484483	 0.936686	 -0.474193
H	 -3.026493	 1.351120	 -3.471169
H	 -4.490456	 1.758496	 -2.595245
H	 -4.014781	 0.079847	 -2.775436
C	 4.024888	 -0.184556	 -0.001949
H	 4.179030	 0.422472	 -0.882452
H	 4.701782	 -1.024608	 -0.003642
H	 4.181981	 0.421185	 0.878906

9 5 3 6 F
