%nprocshared=1
%mem=2GB
#HF/6-31G* nosymm scf=tight opt=ModRedundant

Mol

0 1
O	 1.846386	 1.296922	 0.032703
C	 1.703491	 0.118557	 0.097164
C	 0.380194	 -0.607216	 0.094686
O	 2.718397	 -0.732693	 0.177631
C	 -0.823008	 0.326187	 0.001381
H	 0.397552	 -1.311170	 -0.732878
H	 0.340115	 -1.212346	 0.996313
C	 -2.149452	 -0.435131	 -0.000098
H	 -0.741008	 0.926297	 -0.899359
H	 -0.799196	 1.024471	 0.832129
C	 -3.368779	 0.488503	 -0.000883
H	 -2.193746	 -1.087250	 -0.871175
H	 -2.195311	 -1.087803	 0.870418
C	 -4.693822	 -0.272754	 -0.001129
H	 -3.325798	 1.139422	 -0.871284
H	 -3.326423	 1.139959	 0.869145
H	 -4.781274	 -0.907928	 -0.878124
H	 -5.538651	 0.408946	 -0.001420
H	 -4.781694	 -0.907783	 0.875984
C	 4.021847	 -0.179625	 0.187113
H	 4.205528	 0.375992	 -0.721226
H	 4.697580	 -1.017791	 0.255949
H	 4.150446	 0.475822	 1.036441

9 5 8 12 F
