%nprocshared=4
%mem=2GB
#HF/6-31G* nosymm scf=tight opt=ModRedundant

Mol

0 1
O	 3.557191	 1.088218	 0.852264
C	 2.878148	 0.120418	 0.728480
C	 1.399463	 0.039291	 1.021226
O	 3.347903	 -1.046386	 0.304773
C	 0.809375	 1.363596	 1.500944
H	 0.915463	 -0.318478	 0.118489
H	 1.259458	 -0.742893	 1.763037
C	 -0.666793	 1.272135	 1.902263
H	 0.933974	 2.113526	 0.725574
H	 1.387328	 1.712215	 2.349978
C	 -1.630839	 0.969304	 0.751602
H	 -0.952182	 2.219156	 2.354401
H	 -0.785063	 0.519121	 2.680075
C	 -3.098741	 0.997298	 1.182273
H	 -1.476063	 1.695278	 -0.045157
H	 -1.409065	 -0.005757	 0.323766
C	 -4.071003	 0.690917	 0.041672
H	 -3.332587	 1.975188	 1.599743
H	 -3.251863	 0.279175	 1.986358
C	 -5.534941	 0.724641	 0.479218
H	 -3.918652	 1.406982	 -0.763115
H	 -3.841620	 -0.288033	 -0.374046
H	 -6.199136	 0.503652	 -0.350611
H	 -5.805478	 1.702339	 0.867950
H	 -5.727601	 -0.005331	 1.260434
C	 4.728119	 -1.109107	 -0.004993
H	 4.882018	 -1.033965	 -1.071845
H	 5.068212	 -2.067527	 0.355250
H	 5.265056	 -0.311663	 0.488280

2 4 26 27 F
