%nprocshared=1
%mem=2GB
#HF/6-31G* nosymm scf=tight 
prop=(read,field)

Mol

0 1
H	 0.704810	 1.200036	 0.892000
C	 0.591408	 0.609922	 -0.000000
Cl	 -1.043545	 -0.071759	 0.000000
F	 1.498419	 -0.378977	 0.000000
H	 0.704810	 1.200036	 -0.892000

@grid.dat /N
