%nprocshared=4
%mem=2GB
#HF/cc-pVTZ nosymm scf=tight opt=ModRedundant

Mol

0 1
H	 -0.000105	 1.988529	 0.748933
O	 -0.000098	 1.879786	 -0.188206
C	 -0.000014	 0.545691	 -0.532416
C	 -0.851595	 0.322955	 -1.783406
C	 -0.404929	 -0.309821	 0.669215
H	 1.012251	 0.268968	 -0.788161
F	 -0.362551	 1.030451	 -2.771913
F	 -0.868674	 -0.931588	 -2.156959
F	 -2.094356	 0.710532	 -1.591822
F	 0.442479	 -0.110010	 1.648415
F	 -0.404473	 -1.589227	 0.392028
F	 -1.603057	 0.014546	 1.105851

6 3 2 1 F
