%nprocshared=4
%mem=2GB
#HF/cc-pVTZ nosymm scf=tight opt=ModRedundant

Mol

0 1
H	 0.900624	 -0.749983	 2.144203
C	 -0.048471	 -0.826000	 1.634153
O	 0.000000	 0.000000	 0.518769
H	 -0.213346	 -1.864417	 1.354221
H	 -0.838926	 -0.525311	 2.318713
C	 -1.165153	 0.000000	 -0.236961
H	 -1.229451	 0.882440	 -0.870223
H	 -2.002557	 0.000000	 0.445289
H	 -1.229451	 -0.882440	 -0.870223

2 3 6 7 F
