%nprocshared=1
%mem=2GB
#HF/6-31G* nosymm scf=tight 

Mol

0 1
H	 -0.616068	 -1.486221	 0.563045
N	 -0.626943	 -0.667432	 -0.000092
C	 -1.813513	 -0.387278	 -0.776161
C	 0.469286	 0.129090	 0.000148
H	 -2.015002	 -1.187596	 -1.480361
H	 -1.650377	 0.527147	 -1.322917
H	 -2.678531	 -0.263526	 -0.133152
C	 1.788933	 -0.616240	 -0.000037
O	 0.411098	 1.327768	 -0.000049
H	 1.872803	 -1.245775	 -0.880381
H	 2.595421	 0.101576	 0.003713
H	 1.870096	 -1.252171	 0.875943

4 2 3 5 F
