%nprocshared=4
%mem=2GB
#HF/6-31G* nosymm scf=tight opt=ModRedundant

Mol

0 1
H	 1.933862	 -3.795430	 -0.084252
C	 2.176560	 -2.741711	 0.008071
C	 0.919783	 -1.877503	 -0.084780
H	 2.679650	 -2.601740	 0.960717
H	 2.884562	 -2.496158	 -0.778493
C	 1.217350	 -0.386724	 0.039429
H	 0.215440	 -2.155428	 0.693068
H	 0.422657	 -2.066163	 -1.034866
N	 0.000003	 0.397874	 -0.023260
H	 1.690004	 -0.194283	 0.998871
H	 1.942447	 -0.092866	 -0.726900
C	 -1.217365	 -0.386708	 0.039277
H	 -0.000031	 1.072115	 0.718656
C	 -2.452633	 0.504241	 -0.042481
H	 -1.215291	 -1.074557	 -0.802042
H	 -1.269739	 -1.003477	 0.942735
C	 -3.758029	 -0.289423	 -0.010781
H	 -2.394220	 1.093569	 -0.952170
H	 -2.440793	 1.210787	 0.785871
H	 -3.816659	 -0.981993	 -0.845726
H	 -4.617837	 0.370165	 -0.069296
H	 -3.847478	 -0.867502	 0.904682

10 6 9 12 F
