%nprocshared=4
%mem=2GB
#HF/cc-pVTZ nosymm scf=tight opt=ModRedundant

Mol

0 1
H	 -0.366580	 2.045936	 -0.305741
C	 0.351829	 1.335402	 0.083179
N	 -0.000018	 0.000080	 -0.334836
H	 1.327156	 1.599860	 -0.305475
H	 0.380566	 1.445403	 1.171445
C	 0.416531	 -0.268589	 -1.690079
C	 0.483797	 -0.999344	 0.586747
H	 0.076008	 -1.250396	 -1.993710
H	 -0.020244	 0.459085	 -2.362317
H	 1.502996	 -0.234216	 -1.814509
H	 0.096137	 -0.806074	 1.578991
H	 0.143414	 -1.980424	 0.280565
H	 1.575801	 -1.024877	 0.649894

6 3 2 1 F
