%nprocshared=4
%mem=2GB
#HF/cc-pVTZ nosymm scf=tight opt=ModRedundant

Mol

0 1
H	 -2.644180	 -0.653737	 1.272255
C	 -2.092774	 -0.380414	 0.391915
O	 -0.808934	 -0.154049	 0.752536
F	 -2.163230	 -1.351640	 -0.507133
F	 -2.627232	 0.691260	 -0.169301
C	 0.079950	 -1.206654	 0.717782
C	 0.911195	 -1.145612	 1.997072
Cl	 1.138592	 -1.105704	 -0.701594
H	 -0.412425	 -2.162722	 0.683922
F	 1.770074	 -2.132560	 2.032911
F	 0.112928	 -1.266770	 3.031193
F	 1.561347	 -0.020251	 2.111594

6 3 2 4 F
