%nprocshared=1
%mem=2GB
#HF/6-31G* nosymm scf=tight 

Mol

0 1
O	 -0.682937	 1.318834	 -0.186099
C	 -0.860635	 0.152188	 -0.042321
C	 -2.173363	 -0.477127	 0.338347
O	 0.083258	 -0.765189	 -0.202595
H	 -2.477673	 -1.180929	 -0.427595
H	 -2.923125	 0.290956	 0.455536
H	 -2.058825	 -1.029004	 1.264191
C	 -0.105693	 -2.044651	 0.397464
C	 -0.951672	 -2.950410	 -0.478075
H	 -0.548745	 -1.916930	 1.373442
H	 0.893229	 -2.440123	 0.512600
H	 -1.014166	 -3.938293	 -0.032082
H	 -1.956197	 -2.559529	 -0.580589
H	 -0.510150	 -3.048944	 -1.463856

10 8 4 2 F
