%nprocshared=4
%mem=2GB
#HF/cc-pVTZ nosymm scf=tight opt=ModRedundant

Mol

0 1
H	 0.047672	 -0.202602	 -0.559737
N	 -0.625934	 -0.663929	 -0.000707
C	 -1.978635	 -0.158664	 0.001017
C	 -0.227263	 -1.736104	 0.719074
H	 -2.519057	 -0.493535	 -0.876362
H	 -1.938890	 0.917202	 -0.004137
H	 -2.514266	 -0.485137	 0.884506
C	 1.234924	 -2.091593	 0.562691
O	 -0.962491	 -2.364884	 1.421321
H	 1.860913	 -1.265589	 0.879634
H	 1.450755	 -2.957725	 1.166264
H	 1.463605	 -2.307944	 -0.474380

4 2 3 5 F
