%nprocshared=1
%mem=2GB
#HF/6-31G* nosymm scf=tight 

Mol

0 1
H	 -2.172150	 0.880146	 0.502514
C	 -2.018062	 -0.000025	 -0.114509
O	 -0.774054	 0.001095	 -0.743181
H	 -2.760490	 0.003458	 -0.901350
H	 -2.173624	 -0.884374	 0.496163
C	 0.287274	 0.763492	 -0.196495
C	 1.450049	 0.499896	 -1.150687
C	 -0.052870	 2.257284	 -0.187605
C	 0.647149	 0.279784	 1.211920
H	 1.188673	 0.816664	 -2.154067
H	 1.675552	 -0.560121	 -1.180453
H	 2.340863	 1.035453	 -0.838774
H	 -0.375501	 2.574719	 -1.173594
H	 0.819524	 2.839902	 0.090036
H	 -0.839163	 2.493732	 0.521190
H	 0.816685	 -0.791804	 1.209057
H	 1.553002	 0.767609	 1.556870
H	 -0.133570	 0.499816	 1.932124

2 3 6 7 F
