%nprocshared=1
%mem=2GB
#HF/6-31G* nosymm scf=tight opt=ModRedundant

Mol

0 1
H	 -1.553274	 -1.526099	 -3.036047
C	 -2.270558	 -1.186721	 -2.278453
C	 -2.015582	 -1.700160	 -0.884187
O	 -3.166434	 -0.468365	 -2.583610
C	 -0.576540	 -1.442637	 -0.416112
H	 -2.739091	 -1.248262	 -0.215583
H	 -2.200360	 -2.773597	 -0.899874
C	 -0.252658	 0.041456	 -0.226725
H	 -0.420507	 -1.968388	 0.521185
H	 0.119364	 -1.882217	 -1.129025
C	 1.180775	 0.282413	 0.250794
H	 -0.950911	 0.469518	 0.489552
H	 -0.414096	 0.576542	 -1.160621
C	 2.148627	 -0.814315	 -0.201312
H	 1.516199	 1.249228	 -0.115937
H	 1.192670	 0.346017	 1.338083
C	 3.580890	 -0.659131	 0.322722
H	 2.166869	 -0.852443	 -1.289387
H	 1.762857	 -1.776509	 0.128956
C	 4.324889	 0.564933	 -0.213704
H	 4.142010	 -1.551473	 0.056605
H	 3.564836	 -0.624694	 1.410140
H	 4.342616	 0.565491	 -1.300421
H	 3.866655	 1.493402	 0.110242
H	 5.353900	 0.572371	 0.132816

12 8 11 14 F
