%nprocshared=1
%mem=2GB
#HF/6-31G* nosymm scf=tight 

Mol

0 1
H	 3.287898	 -1.478349	 2.621900
C	 2.982555	 -1.365035	 1.586682
C	 1.682983	 -0.568294	 1.480476
H	 3.791248	 -0.869339	 1.057035
H	 2.872287	 -2.359958	 1.164524
C	 1.217350	 -0.386724	 0.039429
H	 1.806516	 0.412043	 1.929995
H	 0.903562	 -1.073665	 2.048362
N	 0.000003	 0.397874	 -0.023260
H	 1.984295	 0.140866	 -0.521291
H	 1.106200	 -1.367095	 -0.435855
C	 -1.217365	 -0.386708	 0.039277
H	 -0.000031	 1.072115	 0.718656
C	 -2.452633	 0.504241	 -0.042481
H	 -1.215291	 -1.074557	 -0.802042
H	 -1.269739	 -1.003477	 0.942735
C	 -3.758029	 -0.289423	 -0.010781
H	 -2.394220	 1.093569	 -0.952170
H	 -2.440793	 1.210787	 0.785871
H	 -3.816659	 -0.981993	 -0.845726
H	 -4.617837	 0.370165	 -0.069296
H	 -3.847478	 -0.867502	 0.904682

15 12 14 18 F
