%nprocshared=1
%mem=2GB
#HF/6-31G* nosymm scf=tight 

Mol

0 1
H	 2.591676	 2.013956	 0.335017
O	 3.341076	 1.666752	 -0.126416
C	 3.569581	 0.339145	 0.272707
C	 2.390321	 -0.585022	 -0.010113
H	 4.435359	 0.008555	 -0.286590
H	 3.832608	 0.298728	 1.329099
C	 1.122075	 -0.232533	 0.771021
H	 2.180905	 -0.560412	 -1.076371
H	 2.692067	 -1.603060	 0.230545
C	 -0.026288	 -1.210339	 0.506488
H	 0.809174	 0.774190	 0.508405
H	 1.344813	 -0.223505	 1.838095
C	 -1.293857	 -0.952711	 1.329432
H	 -0.275208	 -1.191983	 -0.553017
H	 0.322364	 -2.218997	 0.718031
C	 -2.020511	 0.354545	 1.001508
H	 -1.980549	 -1.781011	 1.167602
H	 -1.044125	 -0.970591	 2.389220
C	 -3.332966	 0.516339	 1.771392
H	 -2.225143	 0.393136	 -0.067485
H	 -1.378482	 1.204544	 1.219690
C	 -4.057146	 1.823392	 1.450708
H	 -3.987671	 -0.323001	 1.546989
H	 -3.131749	 0.468301	 2.839610
H	 -4.301636	 1.887104	 0.394114
H	 -4.983832	 1.907580	 2.009994
H	 -3.442141	 2.683944	 1.698868

14 10 7 4 F
14 10 13 16 F
10 7 4 8 F
8 4 3 2 F
10 13 16 20 F
20 16 19 22 F
