%nprocshared=4
%mem=2GB
#HF/cc-pVTZ nosymm scf=tight opt=ModRedundant

Mol

0 1
H	 2.342730	 0.877684	 -1.045694
C	 2.360424	 0.000000	 -0.411793
C	 1.173749	 0.000000	 0.526870
H	 3.286567	 0.000000	 0.151574
H	 2.342730	 -0.877684	 -1.045694
O	 -0.000000	 0.000000	 -0.223739
H	 1.203779	 0.876757	 1.172538
H	 1.203779	 -0.876757	 1.172538
C	 -1.173749	 0.000000	 0.526870
C	 -2.318650	 0.464507	 -0.346470
H	 -1.065772	 0.657797	 1.388342
H	 -1.372619	 -1.000643	 0.908518
H	 -2.132049	 1.464966	 -0.716247
H	 -3.244081	 0.472415	 0.218009
H	 -2.439220	 -0.195228	 -1.196578

11 9 6 3 F
