%nprocshared=1
%mem=2GB
#HF/6-31G* nosymm scf=tight 

Mol

0 1
O	 0.126779	 0.795696	 0.945232
C	 0.486307	 0.169203	 0.000779
C	 1.608116	 -0.841643	 0.000302
O	 -0.061759	 0.280810	 -1.201209
C	 2.990107	 -0.200498	 -0.000684
H	 1.468623	 -1.481519	 -0.865924
H	 1.469683	 -1.481289	 0.866878
H	 3.129736	 0.423364	 -0.875135
H	 3.757882	 -0.966877	 -0.001197
H	 3.130964	 0.423383	 0.873533
C	 -1.136441	 1.202749	 -1.351166
C	 -1.583076	 1.147867	 -2.796786
H	 -0.794139	 2.190975	 -1.075805
H	 -1.934477	 0.927010	 -0.675372
H	 -0.771144	 1.421339	 -3.460969
H	 -2.404666	 1.838709	 -2.956083
H	 -1.917807	 0.150496	 -3.058437

2 4 11 13 F
11 4 2 3 F
