%nprocshared=4
%mem=2GB
#HF/6-31G* nosymm scf=tight opt=ModRedundant

Mol

0 1
H	 -2.646374	 -0.642757	 1.268656
C	 -2.083525	 -0.384536	 0.393091
O	 -0.807605	 -0.127164	 0.768327
F	 -2.118945	 -1.383102	 -0.486752
F	 -2.621877	 0.670592	 -0.209486
C	 0.084052	 0.273579	 -0.209957
C	 1.360636	 0.703610	 0.501076
Cl	 -0.581412	 1.611576	 -1.160818
H	 0.328318	 -0.521855	 -0.892154
F	 2.266220	 1.088321	 -0.373026
F	 1.844513	 -0.327288	 1.164816
F	 1.149705	 1.681041	 1.348490

9 6 3 2 F
