%nprocshared=1
%mem=2GB
#HF/6-31G* nosymm scf=tight 

Mol

0 1
H	 2.591676	 2.013956	 0.335017
O	 3.341076	 1.666752	 -0.126416
C	 3.569581	 0.339145	 0.272707
C	 2.539767	 -0.640285	 -0.279495
H	 4.553106	 0.084646	 -0.100901
H	 3.608576	 0.269204	 1.359154
C	 2.328653	 -1.879510	 0.593788
H	 1.595980	 -0.115405	 -0.402509
H	 2.863221	 -0.948385	 -1.272379
C	 1.329870	 -2.868219	 -0.014246
H	 1.980684	 -1.569640	 1.575248
H	 3.283523	 -2.383448	 0.744158
C	 1.145802	 -4.167267	 0.778807
H	 0.365236	 -2.377272	 -0.129566
H	 1.662173	 -3.122229	 -1.018613
C	 0.496013	 -3.995840	 2.154621
H	 0.532628	 -4.844440	 0.187816
H	 2.111205	 -4.657653	 0.894376
C	 0.237371	 -5.327889	 2.861860
H	 -0.445991	 -3.460873	 2.042601
H	 1.124145	 -3.376844	 2.790700
C	 -0.405330	 -5.159307	 4.238152
H	 -0.403132	 -5.947983	 2.238381
H	 1.176060	 -5.868173	 2.965989
H	 -1.362431	 -4.650661	 4.164247
H	 -0.577662	 -6.120448	 4.712647
H	 0.228587	 -4.573888	 4.898302

14 10 7 4 F
14 10 13 16 F
10 7 4 8 F
10 13 16 20 F
20 16 19 22 F
4 3 2 1 F
