%nprocshared=4
%mem=2GB
#HF/cc-pVTZ nosymm scf=tight opt=ModRedundant

Mol

0 1
H	 -3.436473	 1.252944	 -1.023892
O	 -3.458596	 0.315260	 -0.960865
C	 -3.176635	 -0.080824	 0.355601
C	 -1.763371	 0.265266	 0.799691
H	 -3.321825	 -1.153438	 0.379502
H	 -3.895468	 0.357385	 1.043382
C	 -0.673390	 -0.426948	 -0.013392
H	 -1.631049	 1.344913	 0.747560
H	 -1.664587	 -0.001624	 1.849167
C	 -0.919132	 -1.922125	 -0.197855
H	 0.285221	 -0.272517	 0.469443
H	 -0.603385	 0.049515	 -0.988373
C	 0.172741	 -2.607935	 -1.016712
H	 -0.998461	 -2.389104	 0.779144
H	 -1.879400	 -2.072673	 -0.686812
C	 -0.069465	 -4.091935	 -1.297655
H	 1.127703	 -2.491362	 -0.509457
H	 0.270626	 -2.089740	 -1.966719
C	 -0.038199	 -4.988864	 -0.062469
H	 0.687077	 -4.436572	 -1.995970
H	 -1.023976	 -4.209740	 -1.804065
H	 0.903211	 -4.887569	 0.468157
H	 -0.148529	 -6.030711	 -0.341077
H	 -0.835794	 -4.752181	 0.631381

11 7 4 3 F
