%nprocshared=4
%mem=2GB
#HF/cc-pVTZ nosymm scf=tight opt=ModRedundant

Mol

0 1
H	 -3.436473	 1.252944	 -1.023892
O	 -3.458596	 0.315260	 -0.960865
C	 -3.176635	 -0.080824	 0.355601
C	 -1.763371	 0.265266	 0.799691
H	 -3.321825	 -1.153438	 0.379502
H	 -3.895468	 0.357385	 1.043382
C	 -0.673390	 -0.426948	 -0.013392
H	 -1.631049	 1.344913	 0.747560
H	 -1.664587	 -0.001624	 1.849167
C	 0.737842	 -0.043159	 0.423759
H	 -0.806103	 -0.190518	 -1.063345
H	 -0.797221	 -1.503753	 0.074146
C	 1.824000	 -0.743224	 -0.390623
H	 0.850588	 1.033777	 0.343840
H	 0.868587	 -0.286314	 1.476203
C	 2.810627	 0.194612	 -1.088389
H	 1.356873	 -1.386827	 -1.132524
H	 2.382933	 -1.400536	 0.269798
C	 2.201805	 1.053625	 -2.194090
H	 3.609881	 -0.404079	 -1.514461
H	 3.277664	 0.838823	 -0.347923
H	 1.721871	 0.436169	 -2.946745
H	 2.966392	 1.641422	 -2.689209
H	 1.459851	 1.743386	 -1.810240

17 13 10 7 F
