%nprocshared=4
%mem=2GB
#HF/cc-pVTZ nosymm scf=tight opt=ModRedundant

Mol

0 1
H	 2.614283	 2.028610	 0.296620
O	 3.358864	 1.662087	 -0.142800
C	 3.565468	 0.338079	 0.273842
C	 2.533667	 -0.637565	 -0.272227
H	 4.548038	 0.064914	 -0.086598
H	 3.593945	 0.282242	 1.360360
C	 2.903740	 -2.108045	 -0.091720
H	 1.581059	 -0.438309	 0.209430
H	 2.402338	 -0.427082	 -1.330928
C	 1.860839	 -3.056686	 -0.681020
H	 3.028196	 -2.319389	 0.965090
H	 3.865962	 -2.297899	 -0.564343
C	 2.215967	 -4.542142	 -0.594073
H	 0.905805	 -2.886760	 -0.189836
H	 1.712459	 -2.799930	 -1.726261
C	 2.253214	 -5.116287	 0.821100
H	 1.487311	 -5.101333	 -1.174498
H	 3.176834	 -4.709783	 -1.075514
C	 2.513391	 -6.620264	 0.848874
H	 1.307458	 -4.908066	 1.316740
H	 3.019769	 -4.617700	 1.406597
C	 2.554943	 -7.196111	 2.260456
H	 1.742715	 -7.128257	 0.275655
H	 3.453842	 -6.830830	 0.346603
H	 1.616270	 -7.030009	 2.778666
H	 2.738496	 -8.264354	 2.243966
H	 3.341435	 -6.734922	 2.848747

8 4 3 2 F
