%nprocshared=1
%mem=2GB
#HF/6-31G* nosymm scf=tight 

Mol

0 1
H	 -3.420663	 1.227371	 -1.044276
O	 -3.452007	 0.283848	 -0.965577
C	 -3.181085	 -0.079926	 0.364119
C	 -1.765924	 0.277073	 0.805136
H	 -3.327791	 -1.152017	 0.410903
H	 -3.905698	 0.375695	 1.036898
C	 -0.685460	 -0.196910	 -0.167723
H	 -1.696381	 1.357647	 0.933534
H	 -1.594454	 -0.156373	 1.788977
C	 0.728912	 0.186058	 0.272806
H	 -0.886766	 0.214408	 -1.152102
H	 -0.750853	 -1.278875	 -0.270048
C	 1.805384	 -0.296912	 -0.702916
H	 0.784731	 1.266454	 0.382572
H	 0.926547	 -0.231634	 1.259253
C	 3.245722	 -0.014611	 -0.260324
H	 1.635200	 0.155290	 -1.678747
H	 1.691739	 -1.369897	 -0.842935
C	 3.612483	 1.469295	 -0.197763
H	 3.921921	 -0.511344	 -0.951917
H	 3.418958	 -0.470718	 0.712384
H	 3.437379	 1.954933	 -1.154128
H	 4.662053	 1.596894	 0.049134
H	 3.035712	 1.999311	 0.552958

20 16 13 17 F
17 13 10 7 F
13 10 7 11 F
11 7 4 3 F
1 2 3 5 F
