%nprocshared=4
%mem=2GB
#HF/cc-pVTZ nosymm scf=tight opt=ModRedundant

Mol

0 1
O	 -2.081319	 -0.951530	 -0.502732
N	 -1.613558	 0.006676	 0.014756
C	 -0.329345	 -0.171618	 0.743966
O	 -2.068523	 1.100482	 -0.024385
C	 -0.135189	 -1.643953	 1.083998
H	 -0.401636	 0.437834	 1.629269
H	 0.441186	 0.192793	 0.085392
C	 1.174684	 -1.873648	 1.833424
H	 -0.970999	 -1.979038	 1.687071
H	 -0.143307	 -2.220947	 0.166530
C	 1.397186	 -3.341640	 2.179796
H	 1.177654	 -1.282740	 2.744608
H	 2.003402	 -1.515030	 1.230077
H	 0.600521	 -3.719279	 2.810994
H	 1.430122	 -3.953567	 1.285271
H	 2.332420	 -3.477028	 2.709107

5 3 2 1 F
