%nprocshared=1
%mem=2GB
#HF/6-31G* nosymm scf=tight 

Mol

0 1
O	 1.846825	 1.296220	 0.000415
C	 1.705091	 0.115954	 0.001797
C	 0.381791	 -0.609817	 0.001258
O	 2.721346	 -0.737485	 -0.000216
C	 -0.823008	 0.326187	 0.001381
H	 0.371250	 -1.265087	 -0.865474
H	 0.370908	 -1.265746	 0.867490
C	 -0.585172	 1.578257	 0.846850
H	 -1.691742	 -0.209249	 0.371245
H	 -1.055868	 0.609513	 -1.020290
C	 -1.784172	 2.528054	 0.858848
H	 -0.348631	 1.287373	 1.869313
H	 0.288616	 2.109493	 0.472465
C	 -1.545488	 3.779474	 1.702785
H	 -2.657312	 1.999603	 1.235019
H	 -2.021141	 2.820218	 -0.161752
H	 -1.339787	 3.521386	 2.737817
H	 -2.412598	 4.432495	 1.691230
H	 -0.698203	 4.348317	 1.330178
C	 4.024888	 -0.184556	 -0.001949
H	 4.179030	 0.422472	 -0.882452
H	 4.701782	 -1.024608	 -0.003642
H	 4.181981	 0.421185	 0.878906

15 11 8 12 F
9 5 8 12 F
1 2 3 6 F
1 2 4 20 F
