%nprocshared=1
%mem=2GB
#HF/6-31G* nosymm scf=tight 

Mol

0 1
H	 -3.892951	 0.981613	 -0.358725
C	 -3.196921	 0.361773	 0.172313
C	 -2.076860	 -0.007332	 -0.404944
H	 -3.439953	 0.057760	 1.173024
O	 -1.836089	 0.222131	 -1.722607
H	 -1.279714	 -0.492534	 0.130156
C	 -0.711084	 -0.351731	 -2.294355
C	 -0.986694	 -1.755489	 -2.784043
H	 0.125894	 -0.392443	 -1.606238
H	 -0.433081	 0.248238	 -3.148309
F	 0.104631	 -2.245911	 -3.353518
F	 -1.320229	 -2.564635	 -1.792142
F	 -1.957962	 -1.787881	 -3.672851

11 8 7 9 F
3 5 7 9 F
6 3 5 7 F
