%nprocshared=4
%mem=2GB
#HF/cc-pVTZ nosymm scf=tight opt=ModRedundant

Mol

0 1
H	 1.307046	 2.616099	 4.256169
C	 0.819617	 1.672886	 4.538389
C	 -0.373528	 1.300815	 3.700619
O	 1.235129	 1.041190	 5.447024
C	 -0.075264	 1.329108	 2.198649
H	 -0.728264	 0.329086	 4.018799
H	 -1.149319	 2.029702	 3.924622
C	 0.902892	 0.246517	 1.747660
H	 -1.010554	 1.216317	 1.661201
H	 0.312494	 2.307949	 1.927157
C	 1.181757	 0.280428	 0.247371
H	 0.504241	 -0.727281	 2.019511
H	 1.840059	 0.348641	 2.288693
C	 2.151032	 -0.811012	 -0.202643
H	 0.241668	 0.186570	 -0.287201
H	 1.589728	 1.252796	 -0.019757
C	 3.580021	 -0.656538	 0.320835
H	 2.170545	 -0.847575	 -1.289412
H	 1.766632	 -1.772905	 0.124928
C	 4.327657	 0.562694	 -0.213579
H	 4.138806	 -1.549270	 0.057813
H	 3.561991	 -0.620783	 1.406976
H	 4.355973	 0.557257	 -1.298551
H	 3.867136	 1.491650	 0.100501
H	 5.351524	 0.571613	 0.142204

8 11 14 18 F
