%nprocshared=4
%mem=2GB
#HF/6-31G* nosymm scf=tight opt=ModRedundant

Mol

0 1
H	 -3.978529	 0.046586	 1.827897
O	 -3.260094	 -0.510654	 1.564765
C	 -2.176559	 0.280390	 1.149080
C	 -1.045193	 -0.644232	 0.735761
H	 -2.464383	 0.914890	 0.311898
H	 -1.847810	 0.934242	 1.955766
C	 0.198102	 0.111031	 0.262842
H	 -1.408586	 -1.297953	 -0.052479
H	 -0.798359	 -1.281305	 1.580562
C	 1.331804	 -0.827780	 -0.158768
H	 -0.072162	 0.760675	 -0.566069
H	 0.553005	 0.762569	 1.060377
C	 2.723619	 -0.410569	 0.329459
H	 1.342964	 -0.912588	 -1.244120
H	 1.116806	 -1.824343	 0.220779
C	 3.243875	 0.895854	 -0.272975
H	 3.424222	 -1.207124	 0.091250
H	 2.714788	 -0.329854	 1.414619
H	 3.251977	 0.848779	 -1.358681
H	 2.637085	 1.747371	 0.016682
H	 4.259473	 1.094070	 0.055697

4 7 10 14 F
