%nprocshared=4
%mem=2GB
#HF/cc-pVTZ nosymm scf=tight opt=ModRedundant

Mol

0 1
H	 -1.835082	 1.385983	 0.000069
C	 -1.300516	 0.441153	 -0.000028
O	 -0.006604	 0.654344	 -0.000106
O	 -1.828920	 -0.612308	 0.000113
C	 0.852093	 -0.482521	 -0.000161
C	 0.234665	 -1.526763	 0.899307
H	 1.829489	 -0.181956	 0.349577
H	 0.957038	 -0.840901	 -1.014317
H	 0.132124	 -1.152984	 1.910121
H	 0.865348	 -2.407448	 0.921351
H	 -0.744730	 -1.815226	 0.539385

7 5 3 2 F
