%nprocshared=4
%mem=2GB
#HF/cc-pVTZ nosymm scf=tight opt=ModRedundant

Mol

0 1
H	 -2.644180	 -0.653737	 1.272255
C	 -2.092774	 -0.380414	 0.391915
O	 -0.808934	 -0.154049	 0.752536
F	 -2.163230	 -1.351640	 -0.507133
F	 -2.627232	 0.691260	 -0.169301
C	 0.085006	 0.250800	 -0.215074
C	 0.459685	 1.699989	 0.086161
Cl	 -0.625371	 0.129833	 -1.835651
H	 0.987466	 -0.335044	 -0.215391
F	 1.322251	 2.142471	 -0.793165
F	 1.023004	 1.758245	 1.269628
F	 -0.578976	 2.489565	 0.088010

9 6 3 2 F
