%nprocshared=1
%mem=2GB
#HF/6-31G* nosymm scf=tight opt=ModRedundant

Mol

0 1
H	 2.591676	 2.013956	 0.335017
O	 3.341076	 1.666752	 -0.126416
C	 3.569581	 0.339145	 0.272707
C	 2.539767	 -0.640285	 -0.279495
H	 4.553106	 0.084646	 -0.100901
H	 3.608576	 0.269204	 1.359154
C	 1.115811	 -0.397273	 0.226630
H	 2.556196	 -0.582511	 -1.364741
H	 2.852081	 -1.648031	 -0.010655
C	 0.076886	 -1.262061	 -0.492809
H	 0.865610	 0.652201	 0.098688
H	 1.071886	 -0.602096	 1.296424
C	 -1.355588	 -1.120140	 0.034655
H	 0.093285	 -1.030858	 -1.556352
H	 0.374218	 -2.304950	 -0.405187
C	 -1.994351	 0.252148	 -0.196186
H	 -1.973365	 -1.875430	 -0.446701
H	 -1.371274	 -1.350961	 1.098757
C	 -3.456417	 0.311990	 0.251270
H	 -1.932903	 0.503354	 -1.254123
H	 -1.433842	 1.019552	 0.332231
C	 -4.094542	 1.682593	 0.027865
H	 -4.027818	 -0.443288	 -0.284028
H	 -3.520888	 0.051797	 1.305797
H	 -4.075037	 1.957545	 -1.022965
H	 -5.130367	 1.692359	 0.352838
H	 -3.567654	 2.455592	 0.580337

10 7 4 8 F
