%nprocshared=1
%mem=2GB
#HF/6-31G* nosymm scf=tight 
prop=(read,field)

Mol

0 1
H	 0.000104	 -1.554567	 -1.175369
N	 0.000103	 -1.430063	 -0.180619
C	 1.211257	 -0.732864	 0.224111
C	 -1.211157	 -0.733069	 0.224111
H	 2.066198	 -1.280979	 -0.157602
H	 1.270262	 -0.777265	 1.309134
C	 1.260050	 0.730362	 -0.227880
H	 -1.270129	 -0.777473	 1.309137
H	 -2.066005	 -1.281283	 -0.157580
C	 -1.260150	 0.730147	 -0.227895
H	 1.335149	 0.767242	 -1.314137
H	 2.151051	 1.213878	 0.165049
C	 -0.000109	 1.477174	 0.220836
H	 -2.151235	 1.213558	 0.165039
H	 -1.335253	 0.767026	 -1.314151
H	 -0.000113	 1.558792	 1.306840
H	 -0.000162	 2.491810	 -0.167154

@grid.dat /N
