%nprocshared=1
%mem=2GB
#HF/6-31G* nosymm scf=tight 

Mol

0 1
H	 -3.405098	 -0.155568	 0.822633
C	 -3.304508	 -0.013952	 -0.260625
C	 -2.523864	 1.207712	 -0.673837
O	 -3.793412	 -0.793092	 -1.012731
C	 -1.151407	 1.287971	 0.008932
H	 -2.432298	 1.206057	 -1.753801
H	 -3.116247	 2.076819	 -0.390305
C	 -0.186377	 0.183260	 -0.428824
H	 -0.713952	 2.257224	 -0.211216
H	 -1.282848	 1.253752	 1.089353
C	 1.180775	 0.282413	 0.250794
H	 -0.059455	 0.228815	 -1.508483
H	 -0.621556	 -0.791807	 -0.218107
C	 2.148627	 -0.814315	 -0.201312
H	 1.605767	 1.261695	 0.045562
H	 1.051566	 0.224511	 1.330764
C	 3.580890	 -0.659131	 0.322722
H	 2.166869	 -0.852443	 -1.289387
H	 1.762857	 -1.776509	 0.128956
C	 4.324889	 0.564933	 -0.213704
H	 4.142010	 -1.551473	 0.056605
H	 3.564836	 -0.624694	 1.410140
H	 4.342616	 0.565491	 -1.300421
H	 3.866655	 1.493402	 0.110242
H	 5.353900	 0.572371	 0.132816

6 3 5 8 F
6 3 2 4 F
3 5 8 12 F
12 8 11 14 F
20 17 14 18 F
