%nprocshared=4
%mem=2GB
#HF/cc-pVTZ nosymm scf=tight opt=ModRedundant

Mol

0 1
H	 -0.000342	 -0.223902	 -3.352295
C	 -0.027146	 0.371068	 -2.446756
C	 0.024493	 -0.518541	 -1.216015
H	 -0.932586	 0.964979	 -2.449855
H	 0.819708	 1.049865	 -2.473332
N	 -0.042516	 0.263377	 -0.000000
H	 -0.822211	 -1.197105	 -1.225584
H	 0.921114	 -1.142847	 -1.255206
C	 0.024493	 -0.518541	 1.216015
H	 0.682568	 0.950412	 -0.000000
C	 -1.094508	 -0.145063	 2.173692
H	 -0.065609	 -1.565845	 0.946785
H	 0.987756	 -0.411420	 1.721853
H	 -2.060367	 -0.288907	 1.705732
H	 -1.050805	 -0.751558	 3.070889
H	 -1.019098	 0.895155	 2.475179

12 9 6 3 F
