%nprocshared=4
%mem=2GB
#HF/cc-pVTZ nosymm scf=tight 
prop=(read,field)

Mol

0 1
H	 -4.023867	 -0.454694	 0.000004
C	 -2.961988	 -0.297887	 0.000004
C	 -2.454509	 0.989011	 0.000025
C	 -2.105610	 -1.382599	 -0.000016
H	 -3.119825	 1.830471	 0.000041
C	 -1.089879	 1.189709	 0.000026
H	 -2.500163	 -2.380196	 -0.000033
C	 -0.738948	 -1.183269	 -0.000016
H	 -0.679987	 2.179177	 0.000042
C	 -0.227114	 0.104573	 0.000006
H	 -0.072982	 -2.021135	 -0.000032
C	 1.239201	 0.374462	 0.000004
O	 1.968513	 -0.725579	 -0.000027
O	 1.709414	 1.462616	 -0.000010
C	 3.373783	 -0.568170	 0.000011
H	 3.695643	 -0.031555	 -0.879663
H	 3.782927	 -1.565261	 -0.000152
H	 3.695632	 -0.031818	 0.879862

@grid.dat /N
