%nprocshared=4
%mem=2GB
#HF/cc-pVTZ nosymm scf=tight opt=ModRedundant

Mol

0 1
O	 -2.071633	 -1.227563	 -0.223463
C	 -1.652164	 -0.152425	 0.058082
C	 -0.327811	 0.006324	 0.778296
C	 -2.402515	 1.108629	 -0.298924
C	 0.849600	 -0.135969	 -0.193754
H	 -0.282215	 0.971189	 1.272341
H	 -0.271143	 -0.766711	 1.533970
C	 0.996354	 -1.553987	 -0.737736
H	 1.772757	 0.153928	 0.301660
H	 0.707363	 0.557821	 -1.015210
C	 2.158380	 -1.697367	 -1.714618
H	 1.132376	 -2.245117	 0.089526
H	 0.072700	 -1.844123	 -1.229900
H	 3.101874	 -1.447432	 -1.240923
H	 2.034017	 -1.040780	 -2.568899
H	 2.233855	 -2.712725	 -2.085768
H	 -3.240910	 0.874416	 -0.936711
H	 -1.747554	 1.818823	 -0.790984
H	 -2.760419	 1.579708	 0.610998

5 3 2 4 F
