%nprocshared=4
%mem=2GB
#HF/6-31G* nosymm scf=tight opt=ModRedundant

Mol

0 1
H	 1.136379	 0.211822	 1.465562
C	 1.135357	 0.094285	 0.374742
C	 0.065331	 0.871482	 -0.349150
O	 1.941633	 -0.601957	 -0.151457
C	 -0.765785	 1.747107	 0.599538
H	 -0.559191	 0.170468	 -0.890874
H	 0.566195	 1.507249	 -1.077914
C	 -1.619199	 0.937975	 1.576990
H	 -1.407672	 2.387602	 0.003083
H	 -0.103844	 2.410922	 1.151647
H	 -2.312355	 0.293220	 1.045623
H	 -2.198529	 1.594099	 2.218235
H	 -1.009659	 0.306334	 2.216428

6 3 2 4 F
