%nprocshared=4
%mem=2GB
#HF/6-31G* nosymm scf=tight opt=ModRedundant

Mol

0 1
O	 -1.276010	 1.052711	 -0.768302
C	 -1.204840	 0.067374	 -0.106123
C	 -2.388195	 -0.672128	 0.458071
O	 -0.067104	 -0.527208	 0.221609
H	 -2.388023	 -1.694060	 0.097175
H	 -3.300579	 -0.174919	 0.164318
H	 -2.315377	 -0.706351	 1.539059
C	 -0.092672	 -1.900882	 0.634276
C	 1.132669	 -2.096159	 1.509486
C	 -0.101206	 -2.804646	 -0.588746
H	 -0.992618	 -2.057459	 1.210548
H	 1.107381	 -1.423500	 2.359273
H	 1.168779	 -3.115360	 1.879968
H	 2.040091	 -1.903006	 0.947408
H	 -0.097300	 -3.846091	 -0.283143
H	 -0.986335	 -2.631887	 -1.187642
H	 0.777652	 -2.624321	 -1.199565

8 4 2 1 F
