%nprocshared=1
%mem=2GB
#HF/6-31G* nosymm scf=tight 

Mol

0 1
O	 -2.439739	 -0.935931	 -0.423848
C	 -1.921153	 0.064240	 -0.045697
C	 -2.624470	 1.379923	 0.150949
O	 -0.632575	 0.154573	 0.251549
H	 -2.168117	 2.136577	 -0.476876
H	 -3.669540	 1.273223	 -0.098610
H	 -2.519365	 1.700893	 1.180846
C	 0.160891	 -1.019931	 0.106212
C	 1.589627	 -0.672828	 0.480843
H	 0.089836	 -1.367806	 -0.916050
H	 -0.238459	 -1.792301	 0.749618
C	 1.784830	 0.785047	 0.901431
H	 2.215800	 -0.890914	 -0.381873
H	 1.914297	 -1.335565	 1.278732
C	 3.238575	 1.106168	 1.245678
H	 1.450920	 1.437763	 0.097338
H	 1.152618	 0.999559	 1.756798
H	 3.350608	 2.144444	 1.541422
H	 3.892472	 0.932010	 0.395756
H	 3.592497	 0.488795	 2.066451

16 12 9 8 F
2 4 8 10 F
1 2 4 8 F
