%nprocshared=4
%mem=2GB
#HF/cc-pVTZ nosymm scf=tight opt=ModRedundant

Mol

0 1
H	 -0.583492	 2.436837	 -1.754023
C	 0.170813	 2.223500	 -0.984380
C	 0.062554	 0.862911	 -0.350953
O	 0.988942	 3.033677	 -0.717113
C	 -1.339253	 0.577611	 0.196911
H	 0.815452	 0.781871	 0.422398
H	 0.298052	 0.137474	 -1.126424
C	 -1.813142	 -0.849710	 -0.061612
H	 -2.032833	 1.276441	 -0.256032
H	 -1.357249	 0.782269	 1.263793
H	 -1.839268	 -1.063526	 -1.124230
H	 -2.810118	 -1.001930	 0.334000
H	 -1.159274	 -1.579980	 0.402282

6 3 5 9 F
