%nprocshared=4
%mem=2GB
#HF/6-31G* nosymm scf=tight opt=ModRedundant

Mol

0 1
O	 3.168421	 1.145960	 0.056807
C	 2.701189	 0.057885	 -0.047330
C	 1.326636	 -0.262271	 -0.582955
O	 3.347903	 -1.046386	 0.304773
C	 0.546855	 0.978046	 -1.013850
H	 1.458885	 -0.963842	 -1.399961
H	 0.796266	 -0.807553	 0.193623
C	 -0.888206	 0.680182	 -1.461480
H	 1.084553	 1.480173	 -1.812517
H	 0.522449	 1.676501	 -0.184401
C	 -1.005351	 -0.148686	 -2.743809
H	 -1.397391	 1.629049	 -1.613485
H	 -1.422101	 0.177297	 -0.656451
C	 -2.452525	 -0.325004	 -3.208135
H	 -0.430288	 0.331675	 -3.533983
H	 -0.561674	 -1.130806	 -2.596966
C	 -2.582130	 -1.156100	 -4.485872
H	 -2.900109	 0.654071	 -3.370360
H	 -3.030595	 -0.795570	 -2.414346
C	 -4.030132	 -1.324214	 -4.944923
H	 -2.004251	 -0.687823	 -5.279859
H	 -2.139183	 -2.136648	 -4.324304
H	 -4.089233	 -1.917477	 -5.852200
H	 -4.491053	 -0.361785	 -5.148587
H	 -4.627068	 -1.821219	 -4.185365
C	 4.728119	 -1.109107	 -0.004993
H	 4.882018	 -1.033965	 -1.071845
H	 5.068212	 -2.067527	 0.355250
H	 5.265056	 -0.311663	 0.488280

1 2 4 26 F
