%nprocshared=4
%mem=2GB
#HF/cc-pVTZ nosymm scf=tight opt=ModRedundant

Mol

0 1
H	 -3.436473	 1.252944	 -1.023892
O	 -3.458596	 0.315260	 -0.960865
C	 -3.176635	 -0.080824	 0.355601
C	 -1.763371	 0.265266	 0.799691
H	 -3.321825	 -1.153438	 0.379502
H	 -3.895468	 0.357385	 1.043382
C	 -0.673390	 -0.426948	 -0.013392
H	 -1.631049	 1.344913	 0.747560
H	 -1.664587	 -0.001624	 1.849167
C	 0.697102	 0.227768	 0.138492
H	 -0.958772	 -0.435399	 -1.059527
H	 -0.611059	 -1.468304	 0.293527
C	 1.068030	 0.500526	 1.594879
H	 1.445270	 -0.410709	 -0.321378
H	 0.713299	 1.164294	 -0.415145
C	 0.207903	 1.556421	 2.291382
H	 2.112740	 0.798032	 1.648932
H	 0.989874	 -0.428846	 2.152354
C	 0.361834	 2.971266	 1.738516
H	 0.464549	 1.566268	 3.346281
H	 -0.836565	 1.260454	 2.237423
H	 1.398044	 3.292315	 1.774218
H	 -0.221460	 3.676563	 2.319520
H	 0.028611	 3.043793	 0.710261

11 7 4 3 F
