%nprocshared=4
%mem=2GB
#HF/cc-pVTZ nosymm scf=tight opt=ModRedundant

Mol

0 1
O	 3.042008	 -0.988224	 0.050560
C	 2.574127	 -2.072921	 -0.023620
C	 3.300766	 -3.312667	 -0.478981
O	 1.317782	 -2.342573	 0.292610
C	 2.767376	 -3.882081	 -1.787613
H	 4.350686	 -3.054378	 -0.546126
H	 3.224616	 -4.040049	 0.323169
C	 2.731630	 -2.869582	 -2.933217
H	 1.774554	 -4.286510	 -1.623868
H	 3.387322	 -4.721923	 -2.076299
C	 4.008162	 -2.049391	 -3.112545
H	 1.905165	 -2.188489	 -2.753685
H	 2.500549	 -3.384013	 -3.863401
C	 5.271903	 -2.905393	 -3.114964
H	 3.947979	 -1.496479	 -4.047178
H	 4.089909	 -1.307217	 -2.323857
C	 5.581783	 -3.535460	 -1.760061
H	 6.116918	 -2.296868	 -3.427992
H	 5.171896	 -3.691315	 -3.860076
C	 6.846558	 -4.387529	 -1.770048
H	 5.682196	 -2.751358	 -1.014527
H	 4.739291	 -4.146264	 -1.447040
H	 7.037236	 -4.819576	 -0.794362
H	 7.714065	 -3.796925	 -2.045234
H	 6.764039	 -5.202199	 -2.481885
C	 0.824678	 -3.623490	 -0.043565
H	 -0.139967	 -3.792406	 0.411591
H	 1.544729	 -4.329140	 0.337866
H	 0.731980	 -3.727573	 -1.114467

6 3 2 1 F
