%nprocshared=4
%mem=2GB
#HF/cc-pVTZ nosymm scf=tight opt=ModRedundant

Mol

0 1
H	 -1.835082	 1.385983	 0.000069
C	 -1.300516	 0.441153	 -0.000028
O	 -0.006604	 0.654344	 -0.000106
O	 -1.828920	 -0.612308	 0.000113
C	 0.852093	 -0.482521	 -0.000013
C	 2.277533	 0.016301	 0.000281
H	 0.638940	 -1.081255	 -0.874107
H	 0.638622	 -1.081386	 0.873917
H	 2.475833	 0.617287	 -0.878048
H	 2.958365	 -0.826505	 0.000352
H	 2.475508	 0.617183	 0.878755

5 3 2 4 F
