%nprocshared=4
%mem=2GB
#HF/6-31G* nosymm scf=tight opt=ModRedundant

Mol

0 1
H	 -3.420663	 1.227371	 -1.044276
O	 -3.452007	 0.283848	 -0.965577
C	 -3.181085	 -0.079926	 0.364119
C	 -1.765924	 0.277073	 0.805136
H	 -3.327791	 -1.152017	 0.410903
H	 -3.905698	 0.375695	 1.036898
C	 -1.721079	 1.238638	 1.993370
H	 -1.230017	 -0.639442	 1.053663
H	 -1.242519	 0.713030	 -0.044105
C	 -0.296873	 1.572521	 2.442075
H	 -2.274861	 0.807711	 2.821825
H	 -2.239553	 2.157673	 1.725128
C	 -0.259990	 2.540112	 3.628032
H	 0.218329	 0.650051	 2.699049
H	 0.253004	 2.007208	 1.608236
C	 1.145861	 2.974629	 4.058071
H	 -0.770720	 2.088131	 4.476892
H	 -0.831649	 3.429051	 3.369556
C	 2.013248	 1.849696	 4.626023
H	 1.050212	 3.753909	 4.810309
H	 1.655524	 3.431583	 3.212116
H	 1.522859	 1.365535	 5.466408
H	 2.964547	 2.236775	 4.978213
H	 2.227592	 1.087561	 3.884153

7 4 3 2 F
