%nprocshared=4
%mem=2GB
#HF/cc-pVTZ nosymm scf=tight opt=ModRedundant

Mol

0 1
H	 1.651322	 -0.822465	 0.000000
O	 0.729993	 -1.034364	 0.000000
C	 0.037305	 0.100061	 0.000000
C	 0.771752	 1.207148	 -0.694999
O	 -1.030258	 0.189768	 0.499054
H	 1.721859	 1.374216	 -0.204232
H	 0.176935	 2.105143	 -0.672089
H	 0.975928	 0.918745	 -1.718036

4 3 2 1 F
