%nprocshared=4
%mem=2GB
#HF/cc-pVTZ nosymm scf=tight opt=ModRedundant

Mol

0 1
H	 -4.335564	 5.903757	 -1.079512
C	 -4.967146	 5.316331	 -0.399131
C	 -4.222600	 4.346409	 0.477678
O	 -6.139673	 5.466243	 -0.403185
C	 -4.869766	 2.958659	 0.509319
H	 -3.194197	 4.299630	 0.143712
H	 -4.229492	 4.766815	 1.480931
C	 -4.789956	 2.214817	 -0.822038
H	 -4.383246	 2.370986	 1.280213
H	 -5.909423	 3.053291	 0.813212
C	 -5.641798	 2.853761	 -1.915610
H	 -5.105482	 1.185607	 -0.672787
H	 -3.756491	 2.166384	 -1.155254
C	 -6.900381	 3.527547	 -1.372262
H	 -5.037082	 3.575553	 -2.455684
H	 -5.927719	 2.092630	 -2.638262
C	 -7.827821	 4.111512	 -2.439380
H	 -6.614724	 4.314215	 -0.677756
H	 -7.459838	 2.800038	 -0.790848
C	 -7.244121	 5.287623	 -3.218572
H	 -8.743922	 4.435874	 -1.955707
H	 -8.114795	 3.326049	 -3.133643
H	 -6.941812	 6.086551	 -2.549005
H	 -6.377675	 4.999038	 -3.801388
H	 -7.976863	 5.694192	 -3.906144

12 8 11 14 F
