%nprocshared=4
%mem=2GB
#HF/cc-pVTZ nosymm scf=tight opt=ModRedundant

Mol

0 1
H	 -2.816458	 -0.841657	 -0.064679
N	 -1.878861	 -0.711874	 0.250184
C	 -1.341419	 0.551458	 -0.220231
H	 -1.333674	 -1.468530	 -0.105118
C	 0.082190	 0.731516	 0.254705
H	 -1.357065	 0.652078	 -1.304747
H	 -1.939897	 1.357530	 0.189797
O	 0.336825	 -0.188457	 1.272800
H	 0.771056	 0.572720	 -0.573799
H	 0.219250	 1.745886	 0.622396
C	 1.597648	 -0.079882	 1.845301
H	 1.681289	 -0.837289	 2.611280
H	 2.383418	 -0.238936	 1.109800
H	 1.745220	 0.896704	 2.300345

8 5 3 6 F
