%nprocshared=4
%mem=2GB
#HF/cc-pVTZ nosymm scf=tight opt=ModRedundant

Mol

0 1
O	 -0.694481	 1.313155	 -0.204815
C	 -0.862519	 0.151932	 -0.046791
C	 -2.171428	 -0.477048	 0.339095
O	 0.085519	 -0.757083	 -0.192238
H	 -2.467997	 -1.191667	 -0.417688
H	 -2.923379	 0.287970	 0.444097
H	 -2.053854	 -1.015120	 1.270901
C	 0.020747	 -1.944862	 0.588446
C	 -0.857735	 -2.994215	 -0.060420
H	 -0.331651	 -1.700735	 1.578412
H	 1.043168	 -2.285762	 0.653205
H	 -0.829374	 -3.905192	 0.526750
H	 -1.884024	 -2.658137	 -0.116667
H	 -0.506982	 -3.222209	 -1.059712

8 4 2 1 F
