%nprocshared=4
%mem=2GB
#HF/6-31G* nosymm scf=tight opt=ModRedundant

Mol

0 1
H	 -2.646374	 -0.642757	 1.268656
C	 -2.083525	 -0.384536	 0.393091
O	 -0.807605	 -0.127164	 0.768327
F	 -2.118945	 -1.383102	 -0.486752
F	 -2.621877	 0.670592	 -0.209486
C	 -0.025451	 0.631654	 -0.083212
C	 1.315096	 -0.080603	 -0.208836
Cl	 0.195601	 2.269424	 0.554018
H	 -0.455538	 0.718935	 -1.065648
F	 2.112835	 0.581129	 -1.019924
F	 1.112909	 -1.278285	 -0.720810
F	 1.911909	 -0.219725	 0.949798

6 3 2 4 F
