%nprocshared=1
%mem=2GB
#HF/6-31G* nosymm scf=tight 

Mol

0 1
H	 -3.135461	 -1.215070	 0.001379
O	 -2.310168	 -0.871793	 -0.309793
C	 -2.026376	 0.340750	 0.341611
C	 -0.673256	 0.843270	 -0.132153
H	 -2.792215	 1.080697	 0.115987
H	 -2.013526	 0.200402	 1.421792
C	 0.486613	 -0.083066	 0.235839
H	 -0.715586	 0.970948	 -1.210718
H	 -0.508072	 1.829858	 0.297090
C	 0.359256	 -1.474052	 -0.387662
H	 0.542422	 -0.171196	 1.315946
H	 1.423344	 0.369936	 -0.086907
C	 1.521324	 -2.397910	 -0.024681
H	 -0.575548	 -1.927985	 -0.065478
H	 0.296342	 -1.382594	 -1.470307
H	 1.589012	 -2.537091	 1.050464
H	 1.403162	 -3.377197	 -0.478532
H	 2.468696	 -1.988273	 -0.364084

14 10 7 11 F
2 3 4 8 F
1 2 3 4 F
