%nprocshared=1
%mem=2GB
#HF/6-31G* nosymm scf=tight opt=ModRedundant

Mol

0 1
H	 -2.646374	 -0.642757	 1.268656
C	 -2.083525	 -0.384536	 0.393091
O	 -0.807605	 -0.127164	 0.768327
F	 -2.118945	 -1.383102	 -0.486752
F	 -2.621877	 0.670592	 -0.209486
C	 0.084052	 0.273579	 -0.209957
C	 1.307561	 -0.626011	 -0.091963
Cl	 0.535856	 1.972610	 0.005409
H	 -0.320260	 0.166468	 -1.201336
F	 2.200145	 -0.310035	 -1.006071
F	 0.937458	 -1.874583	 -0.295752
F	 1.867746	 -0.546750	 1.090358

9 6 3 2 F
