%nprocshared=4
%mem=2GB
#HF/cc-pVTZ nosymm scf=tight opt=ModRedundant

Mol

0 1
H	 -0.726336	 0.067703	 -1.994615
C	 -0.413276	 -0.484933	 -1.134895
C	 -0.410675	 -1.865033	 -1.127785
C	 0.000000	 0.179985	 0.000046
H	 -0.728445	 -2.400759	 -2.000444
C	 0.000003	 -2.552036	 -0.000011
N	 0.000000	 1.644631	 0.000076
C	 0.413275	 -0.484980	 1.134961
H	 0.000000	 -3.625035	 -0.000032
C	 0.410677	 -1.865080	 1.127792
O	 1.050559	 2.194174	 -0.000073
O	 -1.050559	 2.194174	 -0.000074
H	 0.726343	 0.067622	 1.994700
H	 0.728443	 -2.400841	 2.000431

2 4 7 11 F
