%nprocshared=4
%mem=2GB
#HF/cc-pVTZ nosymm scf=tight opt=ModRedundant

Mol

0 1
H	 -2.644180	 -0.653737	 1.272255
C	 -2.092774	 -0.380414	 0.391915
O	 -0.808934	 -0.154049	 0.752536
F	 -2.163230	 -1.351640	 -0.507133
F	 -2.627232	 0.691260	 -0.169301
C	 -0.563075	 0.673312	 1.826932
C	 0.584403	 1.601621	 1.436016
Cl	 -0.125723	 -0.261290	 3.269423
H	 -1.412830	 1.281341	 2.083573
F	 0.859133	 2.427290	 2.413674
F	 0.221996	 2.313720	 0.395396
F	 1.668200	 0.945071	 1.125248

6 3 2 4 F
