%nprocshared=4
%mem=2GB
#HF/6-31G* nosymm scf=tight opt=ModRedundant

Mol

0 1
H	 -0.688875	 1.759616	 -4.777973
C	 -0.295614	 1.471919	 -3.819140
C	 -0.569611	 2.243461	 -2.699856
C	 0.483388	 0.331128	 -3.706513
H	 -1.173897	 3.127957	 -2.788586
C	 -0.063604	 1.872899	 -1.467329
H	 0.694729	 -0.265711	 -4.575262
C	 0.990973	 -0.041743	 -2.473753
H	 -0.265369	 2.457847	 -0.590518
C	 0.718174	 0.729398	 -1.350061
H	 1.594260	 -0.923755	 -2.381986
C	 1.239129	 0.373821	 0.000060
O	 1.970282	 -0.730723	 0.000018
O	 1.026216	 1.009975	 0.984355
C	 3.377318	 -0.566646	 -0.000065
H	 3.695437	 -0.028981	 -0.881264
H	 3.789299	 -1.563704	 0.000236
H	 3.695516	 -0.028316	 0.880770

10 12 13 15 F
