%nprocshared=1
%mem=2GB
#HF/6-31G* nosymm scf=tight opt=ModRedundant

Mol

0 1
O	 0.625848	 1.349995	 -0.000749
C	 0.486307	 0.169203	 0.000779
C	 1.608116	 -0.841643	 0.000302
O	 -0.698257	 -0.426125	 0.001050
C	 2.990107	 -0.200498	 -0.000684
H	 1.468623	 -1.481519	 -0.865924
H	 1.469683	 -1.481289	 0.866878
H	 3.129736	 0.423364	 -0.875135
H	 3.757882	 -0.966877	 -0.001197
H	 3.130964	 0.423383	 0.873533
C	 -1.650833	 0.003868	 -0.965958
C	 -2.905601	 -0.818989	 -0.764030
H	 -1.236421	 -0.135337	 -1.955134
H	 -1.839154	 1.060106	 -0.829987
H	 -2.699123	 -1.874693	 -0.898244
H	 -3.661573	 -0.522615	 -1.483973
H	 -3.305278	 -0.672732	 0.233027

11 4 2 3 F
