%nprocshared=4
%mem=2GB
#HF/6-31G* nosymm scf=tight opt=ModRedundant

Mol

0 1
O	 -0.219478	 -0.216092	 -2.959252
C	 -0.863976	 0.225768	 -2.057134
C	 -0.889235	 -0.467034	 -0.705952
C	 -1.656994	 1.505620	 -2.200227
C	 0.379448	 -0.143569	 0.099626
H	 -0.941501	 -1.535431	 -0.885117
H	 -1.771128	 -0.174852	 -0.142994
C	 1.631333	 -0.777471	 -0.511575
H	 0.482768	 0.934507	 0.149241
H	 0.263088	 -0.495696	 1.123449
C	 2.915987	 -0.544314	 0.291766
H	 1.766672	 -0.399098	 -1.523130
H	 1.471257	 -1.849544	 -0.605828
C	 3.373361	 0.914346	 0.347591
H	 3.708709	 -1.142521	 -0.150311
H	 2.780642	 -0.921148	 1.303579
H	 3.506512	 1.320010	 -0.651625
H	 4.322697	 0.999599	 0.867103
H	 2.660624	 1.545032	 0.868198
H	 -2.719176	 1.287316	 -2.126905
H	 -1.450059	 1.964402	 -3.157035
H	 -1.416613	 2.198446	 -1.398969

6 3 5 8 F
