%nprocshared=4
%mem=2GB
#HF/cc-pVTZ nosymm scf=tight opt=ModRedundant

Mol

0 1
H	 2.462485	 -2.216993	 0.000000
O	 2.777472	 -1.330706	 0.000000
C	 1.763288	 -0.447523	 0.000000
C	 0.520872	 -0.899476	 -0.421024
C	 1.922231	 0.862808	 0.397654
H	 0.419275	 -1.922128	 -0.726008
C	 -0.553904	 -0.040545	 -0.442164
H	 2.868793	 1.238162	 0.726936
C	 0.822123	 1.696696	 0.363585
H	 -1.510271	 -0.398664	 -0.769059
C	 -0.419138	 1.280060	 -0.047469
N	 0.998641	 3.090012	 0.788217
H	 -1.244303	 1.958074	 -0.058604
O	 2.081566	 3.423923	 1.138719
O	 0.049765	 3.798021	 0.755746

4 3 2 1 F
