%nprocshared=1
%mem=2GB
#HF/6-31G* nosymm scf=tight opt=ModRedundant

Mol

0 1
O	 1.846825	 1.296220	 0.000415
C	 1.705091	 0.115954	 0.001797
C	 0.381791	 -0.609817	 0.001258
O	 2.721346	 -0.737485	 -0.000216
C	 -0.823008	 0.326187	 0.001381
H	 0.371250	 -1.265087	 -0.865474
H	 0.370908	 -1.265746	 0.867490
C	 -0.685803	 1.448704	 1.031037
H	 -1.722244	 -0.248488	 0.199653
H	 -0.947774	 0.748645	 -0.990724
C	 -1.886202	 2.396699	 1.045364
H	 -0.557405	 1.018624	 2.023278
H	 0.218971	 2.019802	 0.828276
C	 -1.747985	 3.518776	 2.073514
H	 -2.790543	 1.828110	 1.250337
H	 -2.015233	 2.827795	 0.055089
H	 -1.651832	 3.119685	 3.079345
H	 -2.613704	 4.173589	 2.059307
H	 -0.870028	 4.127077	 1.874837
C	 4.024888	 -0.184556	 -0.001949
H	 4.179030	 0.422472	 -0.882452
H	 4.701782	 -1.024608	 -0.003642
H	 4.181981	 0.421185	 0.878906

9 5 3 6 F
