%nprocshared=4
%mem=2GB
#HF/cc-pVTZ nosymm scf=tight opt=ModRedundant

Mol

0 1
H	 -3.144994	 -1.202467	 -0.018751
O	 -2.321472	 -0.864941	 -0.318626
C	 -2.021813	 0.336996	 0.342658
C	 -0.669613	 0.837286	 -0.127252
H	 -2.780861	 1.084746	 0.127159
H	 -2.006390	 0.184138	 1.420053
C	 0.490865	 -0.082543	 0.241244
H	 -0.708709	 0.967192	 -1.204587
H	 -0.507562	 1.822272	 0.303070
C	 0.613854	 -0.316008	 1.744233
H	 1.414578	 0.340143	 -0.137104
H	 0.361354	 -1.039604	 -0.260137
C	 1.768661	 -1.241393	 2.112836
H	 0.745168	 0.639292	 2.245094
H	 -0.315880	 -0.732694	 2.123253
H	 2.716940	 -0.834474	 1.778022
H	 1.830616	 -1.385519	 3.185540
H	 1.649576	 -2.217725	 1.654535

10 7 4 8 F
