%nprocshared=4
%mem=2GB
#HF/cc-pVTZ nosymm scf=tight 
prop=(read,field)

Mol

0 1
H	 4.612622	 0.364315	 -0.041916
C	 3.752215	 -0.292579	 0.006025
C	 2.451957	 0.502398	 -0.038615
H	 3.817882	 -0.982935	 -0.828322
H	 3.830038	 -0.871740	 0.920100
C	 1.215950	 -0.382432	 0.027190
H	 2.407431	 1.093766	 -0.946396
H	 2.431928	 1.206246	 0.790103
N	 0.000002	 0.398962	 -0.040848
H	 1.221890	 -1.069389	 -0.813776
H	 1.259908	 -0.999702	 0.929481
C	 -1.215959	 -0.382426	 0.027146
H	 -0.000012	 1.086087	 0.683844
C	 -2.451944	 0.502419	 -0.038734
H	 -1.221867	 -1.069383	 -0.813825
H	 -1.259993	 -0.999700	 0.929427
C	 -3.752217	 -0.292541	 0.005779
H	 -2.407325	 1.093810	 -0.946477
H	 -2.431979	 1.206243	 0.790026
H	 -3.817783	 -0.982937	 -0.828544
H	 -4.612613	 0.364357	 -0.042303
H	 -3.830160	 -0.871657	 0.919871

@grid.dat /N
