%nprocshared=4
%mem=2GB
#HF/cc-pVTZ nosymm scf=tight opt=ModRedundant

Mol

0 1
H	 0.372786	 -3.063731	 -4.270100
O	 1.311417	 -3.054546	 -4.296892
C	 1.799065	 -1.830421	 -3.814203
C	 1.658666	 -1.673376	 -2.307448
H	 2.845903	 -1.802073	 -4.084955
H	 1.312159	 -1.000761	 -4.323160
C	 2.343061	 -2.771067	 -1.495950
H	 2.058168	 -0.704706	 -2.022434
H	 0.597518	 -1.659443	 -2.070449
C	 1.671039	 -4.133547	 -1.659867
H	 2.345404	 -2.493184	 -0.447247
H	 3.385116	 -2.848349	 -1.801624
C	 2.359698	 -5.286232	 -0.926845
H	 0.637770	 -4.064024	 -1.328585
H	 1.632877	 -4.374236	 -2.718679
C	 3.742199	 -5.657596	 -1.460250
H	 2.455243	 -5.015168	 0.120973
H	 1.716600	 -6.163088	 -0.953405
C	 4.428711	 -6.743463	 -0.635626
H	 4.370359	 -4.769531	 -1.475259
H	 3.667377	 -5.994747	 -2.489684
C	 5.807692	 -7.119301	 -1.167650
H	 4.519389	 -6.408489	 0.394009
H	 3.798496	 -7.628539	 -0.612590
H	 6.472182	 -6.261595	 -1.173068
H	 6.267457	 -7.889367	 -0.558781
H	 5.746657	 -7.494423	 -2.183972

8 4 3 2 F
