%nprocshared=1
%mem=2GB
#HF/6-31G* nosymm scf=tight opt=ModRedundant

Mol

0 1
H	 -3.875960	 -2.618785	 0.867739
C	 -3.255206	 -1.751550	 0.752722
C	 -2.014762	 -1.884462	 0.343291
H	 -3.672085	 -0.788184	 0.978665
O	 -1.180634	 -0.819263	 0.215062
H	 -1.580589	 -2.839400	 0.105002
C	 0.051604	 -1.018856	 -0.387932
C	 1.043764	 0.054862	 -0.001873
H	 -0.017620	 -1.041351	 -1.469781
H	 0.437898	 -1.966374	 -0.042284
F	 2.212596	 -0.199467	 -0.571921
F	 0.652529	 1.252447	 -0.405055
F	 1.230877	 0.110694	 1.300533

3 5 7 9 F
