%nprocshared=1
%mem=2GB
#HF/6-31G* nosymm scf=tight opt=ModRedundant

Mol

0 1
H	 -2.646374	 -0.642757	 1.268656
C	 -2.083525	 -0.384536	 0.393091
O	 -0.807605	 -0.127164	 0.768327
F	 -2.118945	 -1.383102	 -0.486752
F	 -2.621877	 0.670592	 -0.209486
C	 0.137144	 0.037049	 -0.228252
C	 1.349245	 -0.796804	 0.166285
Cl	 0.582694	 1.742599	 -0.400876
H	 -0.213273	 -0.307290	 -1.185546
F	 2.291141	 -0.699589	 -0.747784
F	 0.986259	 -2.061387	 0.246967
F	 1.844866	 -0.432484	 1.323698

6 3 2 4 F
