%nprocshared=4
%mem=2GB
#HF/6-31G* nosymm scf=tight opt=ModRedundant

Mol

0 1
H	 3.729471	 -0.928294	 -0.070608
O	 2.826016	 -1.159218	 0.122261
C	 2.077727	 -0.067559	 -0.035091
C	 0.624473	 -0.343591	 0.253101
O	 2.542965	 0.974826	 -0.363729
C	 -0.265902	 0.883932	 0.072916
H	 0.324016	 -1.163849	 -0.390541
H	 0.565024	 -0.726111	 1.268924
C	 -1.728698	 0.646073	 0.462102
H	 -0.209144	 1.219470	 -0.958188
H	 0.135059	 1.692851	 0.673903
C	 -2.166039	 1.312403	 1.769656
H	 -1.883640	 -0.426673	 0.551374
H	 -2.378492	 0.978016	 -0.346438
C	 -3.600414	 0.955694	 2.159276
H	 -1.490031	 1.012579	 2.567881
H	 -2.082060	 2.392904	 1.686911
H	 -3.887887	 1.440364	 3.087052
H	 -3.714378	 -0.115807	 2.296121
H	 -4.303738	 1.266764	 1.391939

12 9 6 10 F
