%nprocshared=1
%mem=2GB
#HF/6-31G* nosymm scf=tight opt=ModRedundant

Mol

0 1
H	 -1.623187	 -2.215189	 -2.478463
C	 -2.323384	 -1.580576	 -1.921137
C	 -2.180180	 -1.637858	 -0.421529
O	 -3.118527	 -0.915496	 -2.501798
C	 -0.738921	 -1.384912	 0.042202
H	 -2.870319	 -0.925512	 0.015484
H	 -2.487166	 -2.635156	 -0.108785
C	 -0.252658	 0.041456	 -0.226725
H	 -0.678798	 -1.591885	 1.106548
H	 -0.073154	 -2.097292	 -0.442593
C	 1.180775	 0.282413	 0.250794
H	 -0.922212	 0.744313	 0.264740
H	 -0.317190	 0.258844	 -1.291205
C	 2.148627	 -0.814315	 -0.201312
H	 1.516199	 1.249228	 -0.115937
H	 1.192670	 0.346017	 1.338083
C	 3.580890	 -0.659131	 0.322722
H	 2.166869	 -0.852443	 -1.289387
H	 1.762857	 -1.776509	 0.128956
C	 4.324889	 0.564933	 -0.213704
H	 4.142010	 -1.551473	 0.056605
H	 3.564836	 -0.624694	 1.410140
H	 4.342616	 0.565491	 -1.300421
H	 3.866655	 1.493402	 0.110242
H	 5.353900	 0.572371	 0.132816

12 8 11 14 F
