%nprocshared=4
%mem=2GB
#HF/cc-pVTZ nosymm scf=tight opt=ModRedundant

Mol

0 1
H	 -1.484589	 -0.271923	 -0.297566
N	 -0.625934	 -0.663929	 -0.000707
C	 -0.608552	 -2.048847	 0.407698
C	 0.468494	 0.129045	 -0.002160
H	 -1.270109	 -2.213383	 1.249873
H	 0.395994	 -2.304014	 0.699023
H	 -0.912990	 -2.697511	 -0.405069
C	 1.785715	 -0.615093	 0.000603
O	 0.413285	 1.323206	 0.000532
H	 1.866994	 -1.243310	 -0.878792
H	 2.591506	 0.100263	 0.006422
H	 1.860358	 -1.250360	 0.875522

3 2 4 9 F
