%nprocshared=1
%mem=2GB
#HF/6-31G* nosymm scf=tight opt=ModRedundant

Mol

0 1
H	 -3.161837	 0.500524	 -0.000234
C	 -2.367097	 -0.232926	 -0.000000
O	 -1.158440	 0.455814	 -0.000122
H	 -2.468853	 -0.861886	 -0.882833
H	 -2.468942	 -0.861421	 0.883154
C	 -0.029776	 -0.365156	 0.000148
C	 -0.290877	 -1.557164	 0.904363
H	 0.839915	 0.192431	 0.350340
H	 0.190751	 -0.700470	 -1.014170
C	 0.897868	 -2.515258	 0.966195
H	 -0.528503	 -1.189944	 1.898015
H	 -1.173079	 -2.076671	 0.543071
H	 1.786273	 -2.020548	 1.348847
H	 0.684050	 -3.356051	 1.617497
H	 1.137633	 -2.913108	 -0.015961

8 6 3 2 F
