%nprocshared=4
%mem=2GB
#HF/cc-pVTZ nosymm scf=tight opt=ModRedundant

Mol

0 1
H	 0.430811	 3.415488	 6.182340
C	 -0.397708	 2.735305	 6.021795
C	 -0.688396	 2.561868	 4.534938
H	 -0.140585	 1.786775	 6.480483
H	 -1.259600	 3.133986	 6.547147
C	 -1.858612	 1.617107	 4.270378
H	 0.198917	 2.186060	 4.038568
H	 -0.905911	 3.532913	 4.096096
C	 -2.176821	 1.429058	 2.790423
H	 -1.650751	 0.650329	 4.711924
H	 -2.745437	 2.005488	 4.762806
C	 -1.158526	 0.603377	 2.022431
H	 -3.127836	 0.914054	 2.680399
H	 -2.302512	 2.387265	 2.294882
C	 -1.180025	 0.697761	 0.509157
O	 -0.384920	 -0.107935	 2.578169
C	 -2.285431	 -0.137488	 -0.145671
H	 -0.209921	 0.373472	 0.157623
H	 -1.304974	 1.741273	 0.232271
C	 -3.646545	 0.082747	 0.508954
H	 -2.348635	 0.118247	 -1.199806
H	 -2.034895	 -1.192387	 -0.096473
C	 -4.757412	 -0.737227	 -0.138149
H	 -3.900211	 1.137405	 0.459735
H	 -3.580878	 -0.166775	 1.564416
H	 -4.867876	 -0.486707	 -1.187777
H	 -4.549650	 -1.800049	 -0.072540
H	 -5.709585	 -0.556397	 0.346597

16 12 15 17 F
