%nprocshared=4
%mem=2GB
#HF/cc-pVTZ nosymm scf=tight opt=ModRedundant

Mol

0 1
O	 -1.278239	 1.034789	 -0.784693
C	 -1.204115	 0.062668	 -0.112312
C	 -2.386398	 -0.667698	 0.460323
O	 -0.068058	 -0.518372	 0.226882
H	 -2.382952	 -1.693172	 0.114333
H	 -3.296656	 -0.175702	 0.158400
H	 -2.312537	 -0.685191	 1.540100
C	 0.089222	 -1.032380	 1.553479
C	 1.576397	 -1.006827	 1.844633
C	 -0.509163	 -2.424803	 1.641224
H	 -0.432232	 -0.371439	 2.229001
H	 1.964309	 0.000722	 1.766407
H	 1.764257	 -1.369206	 2.848177
H	 2.115359	 -1.636041	 1.146388
H	 -0.380059	 -2.820415	 2.641885
H	 -1.567261	 -2.402649	 1.420801
H	 -0.018373	 -3.093850	 0.943524

8 4 2 1 F
