%nprocshared=4
%mem=2GB
#HF/cc-pVTZ nosymm scf=tight opt=ModRedundant

Mol

0 1
H	 -0.896487	 -3.060006	 5.797316
C	 -0.526792	 -2.043618	 5.725565
C	 -0.446943	 -1.587342	 4.272719
H	 -1.194721	 -1.407662	 6.296220
H	 0.447803	 -2.011687	 6.201952
C	 0.080975	 -0.161353	 4.131900
H	 -1.430501	 -1.654797	 3.822160
H	 0.199039	 -2.264622	 3.718804
C	 0.177777	 0.320497	 2.687830
H	 -0.554371	 0.516801	 4.688020
H	 1.070137	 -0.104512	 4.576998
C	 -1.158526	 0.603377	 2.022431
H	 0.738567	 1.250858	 2.646477
H	 0.734625	 -0.385557	 2.078793
C	 -1.180025	 0.697761	 0.509157
O	 -2.149990	 0.766485	 2.657782
C	 -2.285431	 -0.137488	 -0.145671
H	 -0.209921	 0.373472	 0.157623
H	 -1.304974	 1.741273	 0.232271
C	 -3.646545	 0.082747	 0.508954
H	 -2.348635	 0.118247	 -1.199806
H	 -2.034895	 -1.192387	 -0.096473
C	 -4.757412	 -0.737227	 -0.138149
H	 -3.900211	 1.137405	 0.459735
H	 -3.580878	 -0.166775	 1.564416
H	 -4.867876	 -0.486707	 -1.187777
H	 -4.549650	 -1.800049	 -0.072540
H	 -5.709585	 -0.556397	 0.346597

16 12 15 17 F
