%nprocshared=1
%mem=2GB
#HF/6-31G* nosymm scf=tight 

Mol

0 1
H	 2.149124	 -1.070450	 0.118839
C	 1.913450	 -0.116906	 -0.369027
C	 0.692068	 0.589600	 0.160137
O	 2.601814	 0.289786	 -1.248166
C	 -0.558097	 -0.297372	 0.091132
H	 0.558495	 1.505602	 -0.403403
H	 0.887141	 0.857751	 1.197862
C	 -1.850991	 0.512573	 -0.019058
H	 -0.476753	 -0.965681	 -0.762987
H	 -0.604799	 -0.930658	 0.975228
C	 -3.096943	 -0.368295	 -0.099594
H	 -1.800724	 1.150330	 -0.898172
H	 -1.931651	 1.177355	 0.838044
H	 -3.060452	 -1.020287	 -0.967456
H	 -3.996858	 0.233488	 -0.175704
H	 -3.191959	 -0.995686	 0.782074

9 5 8 12 F
4 2 3 6 F
