%nprocshared=1
%mem=2GB
#HF/6-31G* nosymm scf=tight 

Mol

0 1
H	 -3.892951	 0.981613	 -0.358725
C	 -3.196921	 0.361773	 0.172313
C	 -2.076860	 -0.007332	 -0.404944
H	 -3.439953	 0.057760	 1.173024
O	 -1.176441	 -0.811945	 0.218517
H	 -1.814774	 0.286366	 -1.406068
C	 0.055148	 -1.011328	 -0.385870
C	 1.044412	 0.068407	 -0.009277
H	 -0.016389	 -1.041365	 -1.467385
H	 0.445504	 -1.955145	 -0.034705
F	 2.212860	 -0.185707	 -0.580208
F	 0.648116	 1.261879	 -0.419649
F	 1.234209	 0.133678	 1.292302

11 8 7 9 F
3 5 7 9 F
6 3 5 7 F
