%nprocshared=4
%mem=2GB
#HF/cc-pVTZ nosymm scf=tight opt=ModRedundant

Mol

0 1
O	 -0.694481	 1.313155	 -0.204815
C	 -0.862519	 0.151932	 -0.046791
C	 -2.171428	 -0.477048	 0.339095
O	 0.085519	 -0.757083	 -0.192238
H	 -2.467997	 -1.191667	 -0.417688
H	 -2.923379	 0.287970	 0.444097
H	 -2.053854	 -1.015120	 1.270901
C	 1.008276	 -0.618164	 -1.266342
C	 2.162990	 0.290301	 -0.898609
H	 0.487455	 -0.251944	 -2.137229
H	 1.355374	 -1.621970	 -1.460370
H	 2.876774	 0.318617	 -1.714183
H	 1.818030	 1.298409	 -0.713939
H	 2.670832	 -0.075251	 -0.014266

8 4 2 1 F
