%nprocshared=1
%mem=2GB
#HF/6-31G* nosymm scf=tight opt=ModRedundant

Mol

0 1
H	 -3.420663	 1.227371	 -1.044276
O	 -3.452007	 0.283848	 -0.965577
C	 -3.181085	 -0.079926	 0.364119
C	 -1.765924	 0.277073	 0.805136
H	 -3.327791	 -1.152017	 0.410903
H	 -3.905698	 0.375695	 1.036898
C	 -0.677594	 -0.417312	 -0.014550
H	 -1.637766	 1.358238	 0.744969
H	 -1.659588	 0.017670	 1.857098
C	 0.738335	 -0.034840	 0.421385
H	 -0.814977	 -0.178223	 -1.064632
H	 -0.802730	 -1.495410	 0.071702
C	 0.789255	 1.302604	 1.164847
H	 1.140208	 -0.825292	 1.050751
H	 1.385031	 0.017204	 -0.453646
C	 2.198265	 1.772310	 1.544613
H	 0.178658	 1.237613	 2.064093
H	 0.328107	 2.065252	 0.540725
C	 2.908098	 0.888095	 2.571601
H	 2.128867	 2.781582	 1.943164
H	 2.808097	 1.843061	 0.646113
H	 2.315077	 0.788821	 3.476924
H	 3.866564	 1.314935	 2.850865
H	 3.096307	 -0.109326	 2.188336

13 10 7 11 F
