%nprocshared=1
%mem=2GB
#HF/6-31G* nosymm scf=tight 

Mol

0 1
H	 2.591676	 2.013956	 0.335017
O	 3.341076	 1.666752	 -0.126416
C	 3.569581	 0.339145	 0.272707
C	 2.539767	 -0.640285	 -0.279495
H	 4.553106	 0.084646	 -0.100901
H	 3.608576	 0.269204	 1.359154
C	 1.115811	 -0.397273	 0.226630
H	 2.556196	 -0.582511	 -1.364741
H	 2.852081	 -1.648031	 -0.010655
C	 0.311700	 0.527577	 -0.691452
H	 1.159614	 0.030504	 1.224355
H	 0.595866	 -1.351141	 0.316816
C	 -1.149168	 0.736117	 -0.275861
H	 0.809984	 1.493442	 -0.751981
H	 0.327683	 0.115171	 -1.698113
C	 -1.342761	 1.490438	 1.042471
H	 -1.654408	 1.285922	 -1.067229
H	 -1.646970	 -0.230482	 -0.214888
C	 -2.813795	 1.766095	 1.361077
H	 -0.802667	 2.435133	 0.998209
H	 -0.905278	 0.927553	 1.863490
C	 -3.010217	 2.513312	 2.679693
H	 -3.255666	 2.342220	 0.550942
H	 -3.357006	 0.823981	 1.396111
H	 -2.505485	 3.475200	 2.664196
H	 -4.062308	 2.695308	 2.876207
H	 -2.611354	 1.945571	 3.515721

14 10 7 4 F
14 10 13 16 F
8 4 3 2 F
10 13 16 20 F
20 16 19 22 F
4 3 2 1 F
