%nprocshared=4
%mem=2GB
#HF/cc-pVTZ nosymm scf=tight opt=ModRedundant

Mol

0 1
H	 -3.079423	 1.830359	 0.977455
C	 -2.744196	 0.813625	 0.963923
C	 -1.651011	 0.503718	 0.311045
H	 -3.314524	 0.073122	 1.489451
O	 -1.189946	 -0.765863	 0.237511
H	 -1.067241	 1.239150	 -0.211909
C	 0.026572	 -0.995256	 -0.379403
C	 1.057223	 0.049888	 -0.004615
H	 -0.054361	 -1.010670	 -1.459674
H	 0.397526	 -1.952058	 -0.044198
F	 2.203233	 -0.234060	 -0.590375
F	 0.698147	 1.254887	 -0.392621
F	 1.266440	 0.094219	 1.288722

3 5 7 9 F
