%nprocshared=4
%mem=2GB
#HF/6-31G* nosymm scf=tight opt=ModRedundant

Mol

0 1
H	 -2.646374	 -0.642757	 1.268656
C	 -2.083525	 -0.384536	 0.393091
O	 -0.807605	 -0.127164	 0.768327
F	 -2.118945	 -1.383102	 -0.486752
F	 -2.621877	 0.670592	 -0.209486
C	 0.084052	 0.273579	 -0.209957
C	 -0.303599	 1.690886	 -0.611364
Cl	 0.016543	 -0.811386	 -1.608351
H	 1.100328	 0.287999	 0.143243
F	 0.514595	 2.146675	 -1.536002
F	 -0.204126	 2.473244	 0.444789
F	 -1.531857	 1.758486	 -1.063896

9 6 3 2 F
