%nprocshared=4
%mem=2GB
#HF/cc-pVTZ nosymm scf=tight opt=ModRedundant

Mol

0 1
O	 -0.406316	 0.104456	 2.438929
C	 -0.846966	 0.612872	 1.465048
C	 -1.705041	 1.846597	 1.455975
O	 -0.637375	 0.157174	 0.243149
H	 -2.660144	 1.621661	 0.998917
H	 -1.849763	 2.193395	 2.466135
H	 -1.229463	 2.616125	 0.861651
C	 0.162530	 -1.009518	 0.097799
C	 1.587210	 -0.664190	 0.477086
H	 0.096803	 -1.356267	 -0.924704
H	 -0.233803	 -1.785900	 0.736810
C	 1.840599	 0.829075	 0.666080
H	 2.232522	 -1.045739	 -0.309507
H	 1.849738	 -1.201307	 1.383409
C	 3.291415	 1.139390	 1.018860
H	 1.570484	 1.354505	 -0.246094
H	 1.189125	 1.208627	 1.444774
H	 3.444187	 2.205032	 1.143180
H	 3.967220	 0.796986	 0.242047
H	 3.581010	 0.653983	 1.944890

12 9 8 10 F
