%nprocshared=1
%mem=2GB
#HF/6-31G* nosymm scf=tight 

Mol

0 1
O	 -0.282018	 0.342890	 -0.889868
C	 0.486307	 0.169203	 0.000779
C	 1.608116	 -0.841643	 0.000302
O	 0.455825	 0.854108	 1.135497
C	 2.990107	 -0.200498	 -0.000684
H	 1.468623	 -1.481519	 -0.865924
H	 1.469683	 -1.481289	 0.866878
H	 3.129736	 0.423364	 -0.875135
H	 3.757882	 -0.966877	 -0.001197
H	 3.130964	 0.423383	 0.873533
C	 -0.555466	 1.846259	 1.278073
C	 -0.381975	 2.478248	 2.642918
H	 -1.525117	 1.378694	 1.174423
H	 -0.450437	 2.573410	 0.484465
H	 -0.484584	 1.736105	 3.426405
H	 -1.136095	 3.243820	 2.794084
H	 0.595940	 2.937450	 2.732758

2 4 11 13 F
11 4 2 3 F
