%nprocshared=4
%mem=2GB
#HF/cc-pVTZ nosymm scf=tight opt=ModRedundant

Mol

0 1
H	 -1.506877	 -0.240338	 0.152892
N	 -0.625934	 -0.663929	 -0.000707
C	 -0.578490	 -2.091474	 -0.212742
C	 0.468494	 0.129045	 -0.002160
H	 -0.973130	 -2.624370	 0.644153
H	 0.448776	 -2.378800	 -0.358557
H	 -1.148869	 -2.373216	 -1.089856
C	 1.785715	 -0.615093	 0.000603
O	 0.413285	 1.323206	 0.000532
H	 1.866994	 -1.243310	 -0.878792
H	 2.591506	 0.100263	 0.006422
H	 1.860358	 -1.250360	 0.875522

3 2 4 9 F
