%nprocshared=4
%mem=2GB
#HF/6-31G* nosymm scf=tight opt=ModRedundant

Mol

0 1
O	 1.846825	 1.296220	 0.000415
C	 1.705091	 0.115954	 0.001797
C	 0.381791	 -0.609817	 0.001258
O	 2.721346	 -0.737485	 -0.000216
C	 -0.823008	 0.326187	 0.001381
H	 0.371250	 -1.265087	 -0.865474
H	 0.370908	 -1.265746	 0.867490
C	 -0.762748	 1.349947	 -1.133232
H	 -0.878417	 0.837564	 0.957212
H	 -1.732247	 -0.261228	 -0.079469
C	 -1.963330	 2.297711	 -1.147559
H	 0.152935	 1.933359	 -1.048673
H	 -0.704925	 0.830971	 -2.088848
C	 -1.903165	 3.319605	 -2.282180
H	 -2.021001	 2.818833	 -0.194539
H	 -2.878757	 1.716460	 -1.232866
H	 -1.014895	 3.940228	 -2.204595
H	 -2.767419	 3.976299	 -2.265797
H	 -1.879002	 2.829026	 -3.251230
C	 4.024888	 -0.184556	 -0.001949
H	 4.179030	 0.422472	 -0.882452
H	 4.701782	 -1.024608	 -0.003642
H	 4.181981	 0.421185	 0.878906

9 5 3 6 F
