%nprocshared=4
%mem=2GB
#HF/cc-pVTZ nosymm scf=tight opt=ModRedundant

Mol

0 1
H	 2.614283	 2.028610	 0.296620
O	 3.358864	 1.662087	 -0.142800
C	 3.565468	 0.338079	 0.273842
C	 3.342306	 0.129467	 1.764267
H	 2.859345	 -0.261059	 -0.285090
H	 4.563012	 0.003860	 -0.004822
C	 4.342160	 0.861411	 2.656680
H	 2.332922	 0.445599	 2.009951
H	 3.396267	 -0.938059	 1.963952
C	 4.107199	 0.602075	 4.144086
H	 4.283433	 1.927088	 2.462036
H	 5.352466	 0.550768	 2.395782
C	 5.125956	 1.251862	 5.082258
H	 3.108152	 0.937714	 4.411437
H	 4.120379	 -0.471055	 4.313462
C	 5.086878	 2.778513	 5.121646
H	 4.952425	 0.875985	 6.086813
H	 6.126203	 0.924766	 4.807178
C	 6.051504	 3.374546	 6.143727
H	 4.075099	 3.104720	 5.352646
H	 5.320927	 3.183719	 4.141834
C	 6.017750	 4.898753	 6.183019
H	 5.815672	 2.983950	 7.129828
H	 7.061762	 3.042736	 5.919351
H	 5.027294	 5.261854	 6.436775
H	 6.711056	 5.288434	 6.919621
H	 6.286379	 5.321539	 5.220500

4 3 2 1 F
