%nprocshared=1
%mem=2GB
#HF/6-31G* nosymm scf=tight 

Mol

0 1
H	 2.591676	 2.013956	 0.335017
O	 3.341076	 1.666752	 -0.126416
C	 3.569581	 0.339145	 0.272707
C	 2.539767	 -0.640285	 -0.279495
H	 4.553106	 0.084646	 -0.100901
H	 3.608576	 0.269204	 1.359154
C	 1.115811	 -0.397273	 0.226630
H	 2.556196	 -0.582511	 -1.364741
H	 2.852081	 -1.648031	 -0.010655
C	 0.649943	 -1.467303	 1.218004
H	 0.436108	 -0.366878	 -0.620391
H	 1.063793	 0.580469	 0.705854
C	 -0.738414	 -1.225208	 1.821489
H	 0.665075	 -2.439520	 0.728706
H	 1.372535	 -1.525511	 2.029283
C	 -1.897931	 -1.309877	 0.825080
H	 -0.902273	 -1.959751	 2.607246
H	 -0.753137	 -0.252235	 2.310308
C	 -3.268017	 -1.166542	 1.491231
H	 -1.852264	 -2.263653	 0.301310
H	 -1.795001	 -0.539481	 0.064687
C	 -4.426940	 -1.244272	 0.497993
H	 -3.385383	 -1.943400	 2.243696
H	 -3.312014	 -0.218400	 2.023186
H	 -4.429878	 -2.195150	 -0.027406
H	 -5.383770	 -1.141427	 1.000520
H	 -4.358751	 -0.456550	 -0.247130

14 10 7 4 F
14 10 13 16 F
8 4 3 2 F
10 13 16 20 F
20 16 19 22 F
4 3 2 1 F
