%nprocshared=4
%mem=2GB
#HF/cc-pVTZ nosymm scf=tight opt=ModRedundant

Mol

0 1
H	 2.462485	 -2.216993	 0.000000
O	 2.777472	 -1.330706	 0.000000
C	 1.763288	 -0.447523	 0.000000
C	 0.876328	 -0.491295	 1.066071
C	 1.586506	 0.477285	 -1.006895
H	 1.032219	 -1.218268	 1.838317
C	 -0.180600	 0.388131	 1.119599
H	 2.255066	 0.533402	 -1.840666
C	 0.515160	 1.344203	 -0.920630
H	 -0.860981	 0.346935	 1.947326
C	 -0.379062	 1.326082	 0.120197
N	 0.333176	 2.325840	 -1.995837
H	 -1.194826	 2.014890	 0.148390
O	 1.120185	 2.319942	 -2.883337
O	 -0.588286	 3.065330	 -1.913616

4 3 2 1 F
