%nprocshared=4
%mem=2GB
#HF/cc-pVTZ nosymm scf=tight opt=ModRedundant

Mol

0 1
H	 -1.835082	 1.385983	 0.000069
C	 -1.300516	 0.441153	 -0.000028
O	 -0.006604	 0.654344	 -0.000106
O	 -1.828920	 -0.612308	 0.000113
C	 0.852093	 -0.482521	 -0.000161
C	 1.104339	 -0.869906	 1.437548
H	 1.769317	 -0.227363	 -0.511584
H	 0.374832	 -1.280676	 -0.550736
H	 1.578769	 -0.060307	 1.977396
H	 1.756374	 -1.734465	 1.472802
H	 0.177267	 -1.118891	 1.938060

7 5 3 2 F
