%nprocshared=1
%mem=2GB
#HF/6-31G* nosymm scf=tight 

Mol

0 1
H	 -2.337989	 -2.727877	 -0.074043
C	 -2.771575	 -1.799197	 -0.465425
C	 -2.642109	 -0.603082	 0.442958
O	 -3.294993	 -1.787557	 -1.532031
C	 -1.197339	 -0.369046	 0.905690
H	 -3.040688	 0.262874	 -0.072759
H	 -3.270409	 -0.792331	 1.312486
C	 -0.252658	 0.041456	 -0.226725
H	 -1.201656	 0.402833	 1.669541
H	 -0.822124	 -1.270174	 1.388329
C	 1.180775	 0.282413	 0.250794
H	 -0.634639	 0.944024	 -0.699281
H	 -0.248899	 -0.724333	 -1.000090
C	 2.148627	 -0.814315	 -0.201312
H	 1.516199	 1.249228	 -0.115937
H	 1.192670	 0.346017	 1.338083
C	 3.580890	 -0.659131	 0.322722
H	 2.166869	 -0.852443	 -1.289387
H	 1.762857	 -1.776509	 0.128956
C	 4.324889	 0.564933	 -0.213704
H	 4.142010	 -1.551473	 0.056605
H	 3.564836	 -0.624694	 1.410140
H	 4.342616	 0.565491	 -1.300421
H	 3.866655	 1.493402	 0.110242
H	 5.353900	 0.572371	 0.132816

6 3 5 8 F
6 3 2 4 F
3 5 8 12 F
8 11 14 18 F
20 17 14 18 F
