%nprocshared=4
%mem=2GB
#HF/cc-pVTZ nosymm scf=tight opt=ModRedundant

Mol

0 1
H	 -3.090247	 1.042680	 -1.398977
C	 -2.449733	 1.526713	 -2.148870
C	 -1.462164	 2.517178	 -1.594271
O	 -2.575295	 1.261252	 -3.293890
C	 -0.619828	 1.938934	 -0.453316
H	 -0.842326	 2.876577	 -2.405423
H	 -2.042629	 3.357374	 -1.219524
C	 0.341739	 0.839050	 -0.898094
H	 -0.057370	 2.747215	 0.001286
H	 -1.278784	 1.556458	 0.322366
C	 1.181757	 0.280428	 0.247371
H	 0.998278	 1.232528	 -1.669611
H	 -0.214887	 0.029076	 -1.362353
C	 2.151032	 -0.811012	 -0.202643
H	 1.728488	 1.094921	 0.712162
H	 0.521986	 -0.121354	 1.013250
C	 3.580021	 -0.656538	 0.320835
H	 2.170545	 -0.847575	 -1.289412
H	 1.766632	 -1.772905	 0.124928
C	 4.327657	 0.562694	 -0.213579
H	 4.138806	 -1.549270	 0.057813
H	 3.561991	 -0.620783	 1.406976
H	 4.355973	 0.557257	 -1.298551
H	 3.867136	 1.491650	 0.100501
H	 5.351524	 0.571613	 0.142204

8 11 14 18 F
