%nprocshared=1
%mem=2GB
#HF/6-31G* nosymm scf=tight 

Mol

0 1
H	 -1.836216	 1.387520	 -0.000064
C	 -1.301823	 0.443321	 -0.000031
O	 -0.003969	 0.658512	 0.000451
O	 -1.829879	 -0.616434	 -0.000857
C	 0.678865	 0.547850	 1.248921
C	 2.142415	 0.835654	 0.992970
H	 0.527948	 -0.448289	 1.641666
H	 0.246751	 1.251885	 1.946709
H	 2.556288	 0.125852	 0.285917
H	 2.699861	 0.761219	 1.920842
H	 2.273900	 1.834235	 0.592424

7 5 3 2 F
