%nprocshared=1
%mem=2GB
#HF/6-31G* nosymm scf=tight 

Mol

0 1
H	 1.991343	 -3.740302	 -0.510494
C	 2.209139	 -2.711250	 -0.243346
C	 0.954210	 -1.843513	 -0.327886
H	 2.618950	 -2.711735	 0.762776
H	 2.983922	 -2.352929	 -0.915331
C	 1.217350	 -0.386724	 0.039429
H	 0.184350	 -2.232582	 0.331152
H	 0.550799	 -1.891564	 -1.338006
N	 0.000003	 0.397874	 -0.023260
H	 1.595469	 -0.336314	 1.056999
H	 2.006564	 0.016436	 -0.603985
C	 -1.217365	 -0.386708	 0.039277
H	 -0.000031	 1.072115	 0.718656
C	 -2.452633	 0.504241	 -0.042481
H	 -1.215291	 -1.074557	 -0.802042
H	 -1.269739	 -1.003477	 0.942735
C	 -3.758029	 -0.289423	 -0.010781
H	 -2.394220	 1.093569	 -0.952170
H	 -2.440793	 1.210787	 0.785871
H	 -3.816659	 -0.981993	 -0.845726
H	 -4.617837	 0.370165	 -0.069296
H	 -3.847478	 -0.867502	 0.904682

15 12 14 18 F
