%nprocshared=4
%mem=2GB
#HF/cc-pVTZ nosymm scf=tight opt=ModRedundant

Mol

0 1
O	 -1.278239	 1.034789	 -0.784693
C	 -1.204115	 0.062668	 -0.112312
C	 -2.386398	 -0.667698	 0.460323
O	 -0.068058	 -0.518372	 0.226882
H	 -2.382952	 -1.693172	 0.114333
H	 -3.296656	 -0.175702	 0.158400
H	 -2.312537	 -0.685191	 1.540100
C	 0.801811	 -1.011450	 -0.797328
C	 1.599956	 -2.136998	 -0.170257
C	 1.674252	 0.115797	 -1.319600
H	 0.187441	 -1.394011	 -1.598130
H	 0.942189	 -2.915953	 0.193504
H	 2.270425	 -2.569463	 -0.903166
H	 2.190602	 -1.771981	 0.661510
H	 2.342085	 -0.258451	 -2.086697
H	 1.069524	 0.900670	 -1.751952
H	 2.273896	 0.534148	 -0.519167

8 4 2 1 F
