%nprocshared=1
%mem=2GB
#HF/6-31G* nosymm scf=tight 

Mol

0 1
H	 3.729471	 -0.928294	 -0.070608
O	 2.826016	 -1.159218	 0.122261
C	 2.077727	 -0.067559	 -0.035091
C	 0.624473	 -0.343591	 0.253101
O	 2.542965	 0.974826	 -0.363729
C	 -0.265902	 0.883932	 0.072916
H	 0.324016	 -1.163849	 -0.390541
H	 0.565024	 -0.726111	 1.268924
C	 -1.728698	 0.646073	 0.462102
H	 -0.209144	 1.219470	 -0.958188
H	 0.135059	 1.692851	 0.673903
C	 -2.587056	 -0.011759	 -0.622072
H	 -2.169986	 1.606618	 0.717798
H	 -1.770283	 0.044496	 1.369038
C	 -4.056368	 -0.128607	 -0.217168
H	 -2.510594	 0.567687	 -1.539918
H	 -2.205629	 -1.003001	 -0.853013
H	 -4.643623	 -0.598774	 -0.999720
H	 -4.487752	 0.848794	 -0.021151
H	 -4.168229	 -0.725127	 0.683881

16 12 9 6 F
7 4 6 10 F
5 3 4 7 F
1 2 3 5 F
