%nprocshared=4
%mem=2GB
#HF/cc-pVTZ nosymm scf=tight opt=ModRedundant

Mol

0 1
H	 -2.816458	 -0.841657	 -0.064679
N	 -1.878861	 -0.711874	 0.250184
C	 -1.341419	 0.551458	 -0.220231
H	 -1.333674	 -1.468530	 -0.105118
C	 0.082190	 0.731516	 0.254705
H	 -1.357065	 0.652078	 -1.304747
H	 -1.939897	 1.357530	 0.189797
O	 0.410654	 -0.326282	 1.103753
H	 0.757405	 0.748890	 -0.599669
H	 0.174657	 1.678479	 0.781620
C	 1.677992	 -0.241697	 1.665821
H	 1.820813	 -1.107895	 2.295653
H	 2.452300	 -0.234283	 0.901566
H	 1.785149	 0.654402	 2.272522

8 5 3 6 F
