%nprocshared=4
%mem=2GB
#HF/cc-pVTZ nosymm scf=tight opt=ModRedundant

Mol

0 1
H	 -2.698799	 -0.000846	 0.036018
C	 -1.694291	 -0.000483	 0.434279
O	 -0.828718	 -0.000608	 -0.655022
H	 -1.576855	 0.881100	 1.056504
H	 -1.576401	 -0.881658	 1.057001
C	 -0.573647	 -1.213794	 -1.319096
C	 0.133566	 -2.230592	 -0.430140
C	 -1.818959	 -1.791607	 -1.982105
H	 0.114822	 -0.926290	 -2.103934
H	 0.989899	 -1.777145	 0.053737
H	 0.482915	 -3.062987	 -1.029990
H	 -0.521049	 -2.631771	 0.334790
H	 -2.316652	 -1.033762	 -2.574571
H	 -1.540620	 -2.608129	 -2.638301
H	 -2.525413	 -2.181030	 -1.258355

6 3 2 1 F
