%nprocshared=4
%mem=2GB
#HF/6-31G* nosymm scf=tight opt=ModRedundant

Mol

0 1
H	 -2.698709	 -0.000305	 0.034435
C	 -1.693833	 0.000034	 0.434417
O	 -0.828952	 -0.000968	 -0.659236
H	 -1.574200	 0.882896	 1.055746
H	 -1.574147	 -0.881698	 1.057355
C	 0.500948	 0.422226	 -0.467465
C	 0.594627	 1.891197	 -0.059709
C	 1.276101	 -0.493275	 0.478027
H	 0.935586	 0.323715	 -1.455096
H	 -0.007152	 2.504477	 -0.721751
H	 1.624070	 2.229294	 -0.124308
H	 0.260438	 2.056911	 0.959615
H	 1.145423	 -1.530405	 0.188647
H	 2.335248	 -0.258947	 0.436043
H	 0.958411	 -0.382374	 1.509828

6 3 2 1 F
