%nprocshared=4
%mem=2GB
#HF/cc-pVTZ nosymm scf=tight opt=ModRedundant

Mol

0 1
O	 0.990519	 0.278286	 -0.930934
C	 1.704209	 0.119472	 -0.000093
C	 1.595477	 0.839522	 1.319508
O	 2.715427	 -0.733672	 0.000025
C	 0.447989	 1.837416	 1.381167
H	 1.499943	 0.082512	 2.091038
H	 2.548949	 1.325303	 1.499367
C	 0.367784	 2.547280	 2.729380
H	 -0.484554	 1.322441	 1.180073
H	 0.565539	 2.566537	 0.587533
C	 -0.777134	 3.552817	 2.810159
H	 0.252463	 1.810324	 3.521117
H	 1.307210	 3.059046	 2.926391
C	 -0.857646	 4.261961	 4.157766
H	 -1.716027	 3.042569	 2.614493
H	 -0.662077	 4.290313	 2.020842
H	 -1.007451	 3.552883	 4.965232
H	 -1.680040	 4.967545	 4.181309
H	 0.054675	 4.810819	 4.366715
C	 4.020999	 -0.192556	 0.000019
H	 4.182809	 0.412891	 -0.879449
H	 4.692590	 -1.035653	 0.000152
H	 4.182726	 0.413087	 0.879368

1 2 4 20 F
