%nprocshared=1
%mem=2GB
#HF/6-31G* nosymm scf=tight opt=ModRedundant

Mol

0 1
O	 3.225979	 0.970355	 -0.599647
C	 2.701189	 0.057885	 -0.047330
C	 1.245376	 -0.013843	 0.345420
O	 3.347903	 -1.046386	 0.304773
C	 0.796012	 -1.422268	 0.728211
H	 1.098787	 0.693943	 1.154581
H	 0.665859	 0.367766	 -0.491379
C	 -0.702851	 -1.531712	 1.028088
H	 1.368537	 -1.760455	 1.586677
H	 1.046157	 -2.097391	 -0.082997
C	 -1.169069	 -0.771800	 2.273193
H	 -0.945406	 -2.584511	 1.152603
H	 -1.271312	 -1.191728	 0.163639
C	 -2.647916	 -1.001507	 2.591385
H	 -0.565912	 -1.078763	 3.126301
H	 -0.998797	 0.294962	 2.146707
C	 -3.126209	 -0.242857	 3.830666
H	 -2.824287	 -2.066471	 2.732729
H	 -3.250911	 -0.704774	 1.734621
C	 -4.603080	 -0.480659	 4.143723
H	 -2.524043	 -0.537441	 4.687555
H	 -2.954743	 0.822249	 3.689494
H	 -4.912054	 0.070086	 5.026798
H	 -4.800879	 -1.533439	 4.324619
H	 -5.234757	 -0.163816	 3.318575
C	 4.728119	 -1.109107	 -0.004993
H	 4.882018	 -1.033965	 -1.071845
H	 5.068212	 -2.067527	 0.355250
H	 5.265056	 -0.311663	 0.488280

6 3 2 1 F
