%nprocshared=4
%mem=2GB
#HF/cc-pVTZ nosymm scf=tight opt=ModRedundant

Mol

0 1
H	 1.033986	 -1.662456	 -0.774804
C	 0.385881	 -0.804371	 -0.962152
N	 -0.537714	 -0.645117	 0.000000
O	 0.519659	 -0.115889	 -1.923825
C	 -1.522613	 0.412524	 0.000000
H	 -0.533823	 -1.295258	 0.746515
H	 -2.150256	 0.356137	 -0.880771
H	 -1.005621	 1.357208	 0.000000
H	 -2.150256	 0.356137	 0.880771

6 3 5 7 F
