%nprocshared=4
%mem=2GB
#HF/6-31G* nosymm scf=tight opt=ModRedundant

Mol

0 1
O	 3.225979	 0.970355	 -0.599647
C	 2.701189	 0.057885	 -0.047330
C	 1.245376	 -0.013843	 0.345420
O	 3.347903	 -1.046386	 0.304773
C	 0.483105	 -1.122576	 -0.376917
H	 1.212029	 -0.132855	 1.423341
H	 0.807184	 0.959667	 0.140572
C	 -1.017873	 -1.141681	 -0.068381
H	 0.922690	 -2.082964	 -0.124849
H	 0.624572	 -0.999966	 -1.445269
C	 -1.374826	 -1.492659	 1.378861
H	 -1.488058	 -1.867422	 -0.727890
H	 -1.452792	 -0.176434	 -0.323631
C	 -2.883200	 -1.606437	 1.608775
H	 -0.898353	 -2.434573	 1.646424
H	 -0.972003	 -0.743244	 2.056418
C	 -3.251887	 -1.951690	 3.052728
H	 -3.292373	 -2.364622	 0.943216
H	 -3.361527	 -0.668419	 1.331241
C	 -4.759807	 -2.067223	 3.273022
H	 -2.773912	 -2.888266	 3.332027
H	 -2.847475	 -1.192645	 3.719123
H	 -4.989286	 -2.312531	 4.305384
H	 -5.189351	 -2.843042	 2.645492
H	 -5.263445	 -1.134513	 3.034958
C	 4.728119	 -1.109107	 -0.004993
H	 4.882018	 -1.033965	 -1.071845
H	 5.068212	 -2.067527	 0.355250
H	 5.265056	 -0.311663	 0.488280

6 3 2 1 F
