%nprocshared=4
%mem=2GB
#HF/6-31G* nosymm scf=tight opt=ModRedundant

Mol

0 1
O	 -2.042549	 -1.228399	 -0.269030
C	 -1.653912	 -0.146171	 0.050137
C	 -0.332303	 0.024011	 0.778412
C	 -2.438579	 1.106236	 -0.272369
C	 0.845713	 -0.001731	 -0.208243
H	 -0.323783	 0.953829	 1.340327
H	 -0.235459	 -0.796807	 1.480410
C	 1.928909	 -1.003708	 0.193948
H	 1.285658	 0.991286	 -0.282064
H	 0.465327	 -0.247652	 -1.195142
C	 3.097413	 -1.037856	 -0.790247
H	 2.298895	 -0.757174	 1.186801
H	 1.489021	 -1.995458	 0.268106
H	 3.580049	 -0.067217	 -0.860780
H	 2.762771	 -1.313669	 -1.785930
H	 3.848007	 -1.758558	 -0.481666
H	 -3.277823	 0.863061	 -0.908988
H	 -1.806773	 1.843019	 -0.759671
H	 -2.802853	 1.554979	 0.648059

9 5 3 2 F
