%nprocshared=1
%mem=2GB
#HF/6-31G* nosymm scf=tight 

Mol

0 1
H	 1.169217	 1.339402	 -3.894864
O	 2.098795	 1.175518	 -3.830845
C	 2.628754	 1.876098	 -2.734311
C	 2.239333	 1.271750	 -1.389751
H	 3.703978	 1.839797	 -2.853681
H	 2.334505	 2.924268	 -2.773522
C	 0.737219	 1.316359	 -1.099011
H	 2.586198	 0.242076	 -1.361069
H	 2.774966	 1.808853	 -0.608736
C	 0.384847	 0.751958	 0.280157
H	 0.208338	 0.757189	 -1.865809
H	 0.386335	 2.346428	 -1.163657
C	 -1.097916	 0.851182	 0.656864
H	 0.700581	 -0.288434	 0.332532
H	 0.966893	 1.283007	 1.030431
C	 -2.037799	 -0.007733	 -0.193645
H	 -1.206309	 0.556242	 1.698534
H	 -1.413360	 1.892098	 0.603710
C	 -3.489788	 0.042957	 0.286558
H	 -1.691690	 -1.040266	 -0.179695
H	 -2.000159	 0.312212	 -1.232163
C	 -4.216917	 1.317354	 -0.141063
H	 -4.025645	 -0.823308	 -0.095450
H	 -3.513059	 -0.038752	 1.371301
H	 -4.239342	 1.411634	 -1.223113
H	 -5.243387	 1.322503	 0.212445
H	 -3.726170	 2.201406	 0.256408

14 10 7 4 F
14 10 13 16 F
10 7 4 8 F
8 4 3 2 F
10 13 16 20 F
4 3 2 1 F
