%nprocshared=4
%mem=2GB
#HF/6-31G* nosymm scf=tight opt=ModRedundant

Mol

0 1
H	 -3.261111	 -0.295142	 1.469456
C	 -3.306842	 -0.277400	 0.373456
C	 -2.660244	 0.921717	 -0.272021
O	 -3.838538	 -1.161155	 -0.216482
C	 -3.360192	 2.237309	 0.096145
H	 -1.612658	 0.936332	 0.005571
H	 -2.718033	 0.774782	 -1.349855
C	 -3.219634	 2.610669	 1.574030
H	 -2.944989	 3.031198	 -0.517558
H	 -4.414739	 2.171454	 -0.167198
C	 -3.912061	 3.929320	 1.924054
H	 -2.163106	 2.677320	 1.825334
H	 -3.627048	 1.815770	 2.195873
C	 -3.755847	 4.307732	 3.399301
H	 -3.508645	 4.717160	 1.292947
H	 -4.971579	 3.855366	 1.682524
C	 -4.502748	 5.580055	 3.815719
H	 -2.698114	 4.420165	 3.632223
H	 -4.114274	 3.481813	 4.010120
C	 -3.977264	 6.864757	 3.173049
H	 -4.435626	 5.679008	 4.896298
H	 -5.560615	 5.467868	 3.587129
H	 -2.916643	 6.994824	 3.371628
H	 -4.115132	 6.866848	 2.096962
H	 -4.495640	 7.732985	 3.568602

6 3 2 4 F
