%nprocshared=4
%mem=2GB
#HF/cc-pVTZ nosymm scf=tight opt=ModRedundant

Mol

0 1
H	 6.830139	 -7.991321	 -3.594019
O	 6.919685	 -7.395448	 -2.873778
C	 7.556133	 -6.217560	 -3.294236
C	 6.963855	 -4.956676	 -2.682629
H	 8.589701	 -6.315818	 -2.990819
H	 7.544576	 -6.146879	 -4.380202
C	 6.745559	 -5.034531	 -1.173280
H	 7.616502	 -4.120541	 -2.915197
H	 6.013573	 -4.761658	 -3.173884
C	 5.651305	 -6.027751	 -0.784745
H	 6.489953	 -4.049739	 -0.796648
H	 7.677077	 -5.322782	 -0.689057
C	 5.440655	 -6.201136	 0.720519
H	 4.714273	 -5.724762	 -1.245610
H	 5.897640	 -6.996473	 -1.210615
C	 6.604019	 -6.853542	 1.465295
H	 5.258810	 -5.221695	 1.154287
H	 4.535032	 -6.778845	 0.891558
C	 6.797405	 -8.323320	 1.100925
H	 6.434681	 -6.770313	 2.536680
H	 7.526131	 -6.318022	 1.260527
C	 6.800444	 -8.573225	 -0.403545
H	 7.731964	 -8.678410	 1.526471
H	 6.010096	 -8.913688	 1.562089
H	 7.597734	 -8.021309	 -0.890326
H	 6.942250	 -9.624421	 -0.627122
H	 5.863280	 -8.263257	 -0.854095

4 3 2 1 F
