%nprocshared=4
%mem=2GB
#HF/cc-pVTZ nosymm scf=tight opt=ModRedundant

Mol

0 1
H	 1.651322	 -0.822465	 0.000000
O	 0.729993	 -1.034364	 0.000000
C	 0.037305	 0.100061	 0.000000
C	 -0.049634	 0.705605	 -1.368881
O	 -0.440450	 0.549908	 0.982945
H	 0.947576	 0.901433	 -1.741297
H	 -0.617374	 1.620132	 -1.323756
H	 -0.521622	 0.004330	 -2.044832

4 3 2 1 F
