%nprocshared=4
%mem=2GB
#HF/cc-pVTZ nosymm scf=tight opt=ModRedundant

Mol

0 1
O	 -4.741559	 3.677983	 3.374923
C	 -3.562142	 3.759984	 3.486103
C	 -2.630085	 2.634875	 3.084568
C	 -2.907686	 5.004973	 4.041002
C	 -2.930863	 2.021940	 1.724174
H	 -1.614819	 3.023858	 3.116108
H	 -2.673335	 1.879345	 3.865793
C	 -2.301374	 2.805352	 0.575644
H	 -4.004979	 1.967949	 1.588248
H	 -2.576181	 0.997675	 1.709518
C	 -2.595695	 2.201223	 -0.794296
H	 -2.659738	 3.832166	 0.598071
H	 -1.224416	 2.857114	 0.719668
C	 -4.084696	 2.003606	 -1.063665
H	 -2.085910	 1.244833	 -0.881189
H	 -2.173766	 2.840433	 -1.565992
C	 -4.682674	 0.830965	 -0.293519
H	 -4.620003	 2.913532	 -0.805940
H	 -4.239734	 1.851077	 -2.128379
H	 -4.574394	 0.970046	 0.776982
H	 -5.739490	 0.718470	 -0.506842
H	 -4.191507	 -0.100276	 -0.555413
H	 -2.221465	 5.423139	 3.312795
H	 -3.662109	 5.735040	 4.290482
H	 -2.329392	 4.760820	 4.925313

9 5 3 6 F
