%nprocshared=1
%mem=2GB
#HF/6-31G* nosymm scf=tight opt=ModRedundant

Mol

0 1
H	 3.557202	 3.519408	 -2.921299
C	 3.689976	 2.701814	 -2.219563
C	 2.445233	 2.508838	 -1.354375
H	 3.908158	 1.805827	 -2.793101
H	 4.561874	 2.926318	 -1.611128
C	 2.601507	 1.366766	 -0.347865
H	 1.590990	 2.312760	 -1.994238
H	 2.232423	 3.433105	 -0.819460
C	 1.377643	 1.161302	 0.545000
H	 2.811623	 0.443154	 -0.875535
H	 3.459254	 1.569743	 0.289403
C	 0.169600	 0.576866	 -0.172154
H	 1.622737	 0.471821	 1.351421
H	 1.090343	 2.091225	 1.030673
C	 -1.181045	 0.701995	 0.511084
O	 0.274582	 0.022555	 -1.224829
C	 -2.285934	 -0.139295	 -0.145128
H	 -1.449051	 1.751551	 0.493206
H	 -1.071135	 0.403303	 1.551943
C	 -3.651768	 0.085446	 0.506485
H	 -2.346596	 0.110469	 -1.202272
H	 -2.034737	 -1.195320	 -0.088721
C	 -4.759797	 -0.746382	 -0.137905
H	 -3.908762	 1.140117	 0.445781
H	 -3.588286	 -0.154158	 1.565709
H	 -4.868882	 -0.505166	 -1.191300
H	 -4.548009	 -1.809175	 -0.062213
H	 -5.715422	 -0.564821	 0.343442

16 12 15 17 F
