%nprocshared=4
%mem=2GB
#HF/cc-pVTZ nosymm scf=tight opt=ModRedundant

Mol

0 1
O	 -2.071633	 -1.227563	 -0.223463
C	 -1.652164	 -0.152425	 0.058082
C	 -0.327811	 0.006324	 0.778296
C	 -2.402515	 1.108629	 -0.298924
C	 0.424293	 -1.328018	 0.851065
H	 0.285868	 0.747454	 0.277047
H	 -0.539613	 0.359595	 1.779383
C	 -0.265318	 -2.344335	 1.756475
H	 1.437108	 -1.160415	 1.208568
H	 0.512210	 -1.732071	 -0.151620
C	 0.472403	 -3.677239	 1.822014
H	 -0.356119	 -1.931995	 2.757601
H	 -1.278105	 -2.509054	 1.400569
H	 1.478345	 -3.549990	 2.207918
H	 0.550825	 -4.129213	 0.839192
H	 -0.043174	 -4.377850	 2.468332
H	 -3.240910	 0.874416	 -0.936711
H	 -1.747554	 1.818823	 -0.790984
H	 -2.760419	 1.579708	 0.610998

5 3 2 4 F
