%nprocshared=4
%mem=2GB
#HF/6-31G* nosymm scf=tight opt=ModRedundant

Mol

0 1
H	 -2.435962	 1.646975	 -1.593494
C	 -1.699077	 1.011791	 -1.141605
C	 -2.076860	 -0.007332	 -0.404944
H	 -0.661113	 1.231059	 -1.307324
O	 -1.180634	 -0.819263	 0.215062
H	 -3.111031	 -0.248160	 -0.232644
C	 0.051604	 -1.018856	 -0.387932
C	 1.043764	 0.054862	 -0.001873
H	 -0.017620	 -1.041351	 -1.469781
H	 0.437898	 -1.966374	 -0.042284
F	 2.212596	 -0.199467	 -0.571921
F	 0.652529	 1.252447	 -0.405055
F	 1.230877	 0.110694	 1.300533

6 3 5 7 F
