%nprocshared=4
%mem=2GB
#HF/cc-pVTZ nosymm scf=tight opt=ModRedundant

Mol

0 1
H	 -3.268214	 -0.875720	 0.463107
C	 -2.806015	 0.000007	 0.024886
N	 -1.391133	 0.000016	 0.301321
H	 -3.029448	 0.000055	 -1.045738
H	 -3.268126	 0.875758	 0.463150
C	 -0.763150	 -1.257397	 -0.042374
C	 -1.097900	 0.364588	 1.670494
H	 -1.175073	 -2.082790	 0.545755
H	 -0.956254	 -1.471842	 -1.086792
C	 0.735338	 -1.188556	 0.185239
H	 -1.535377	 1.334252	 1.876540
H	 -1.532639	 -0.350238	 2.375387
C	 0.400588	 0.433428	 1.898106
H	 1.172815	 -2.158220	 -0.020808
H	 1.170077	 -0.473730	 -0.519654
N	 1.028571	 -0.823984	 1.554412
H	 0.593692	 0.647874	 2.942524
H	 0.812511	 1.258822	 1.309978
C	 2.443453	 -0.823975	 1.830847
H	 2.861493	 -1.800092	 1.618707
H	 2.615366	 -0.607787	 2.877876
H	 2.991711	 -0.085628	 1.238888

6 3 2 4 F
