%nprocshared=4
%mem=2GB
#HF/cc-pVTZ nosymm scf=tight opt=ModRedundant

Mol

0 1
H	 -1.800566	 2.129874	 1.009273
C	 -0.784662	 1.758979	 1.045952
C	 -0.600949	 0.658697	 -0.000002
H	 -0.593000	 1.381642	 2.041426
H	 -0.111101	 2.584799	 0.860416
C	 0.763408	 0.112229	 -0.000006
H	 -1.283689	 -0.161192	 0.180498
H	 -0.804506	 1.035187	 -0.993860
N	 1.806008	 -0.317179	 0.000007

7 3 6 9 F
