%nprocshared=1
%mem=2GB
#HF/6-31G* nosymm scf=tight 

Mol

0 1
H	 2.591676	 2.013956	 0.335017
O	 3.341076	 1.666752	 -0.126416
C	 3.569581	 0.339145	 0.272707
C	 2.539767	 -0.640285	 -0.279495
H	 4.553106	 0.084646	 -0.100901
H	 3.608576	 0.269204	 1.359154
C	 2.088703	 -0.329087	 -1.708678
H	 2.960208	 -1.641778	 -0.239391
H	 1.675341	 -0.632346	 0.382374
C	 1.015684	 -1.297537	 -2.214200
H	 2.949666	 -0.363907	 -2.370414
H	 1.700432	 0.688598	 -1.752329
C	 0.466815	 -0.979066	 -3.609786
H	 1.415286	 -2.310017	 -2.207116
H	 0.186877	 -1.294345	 -1.509382
C	 1.476672	 -1.133982	 -4.750255
H	 -0.377942	 -1.636977	 -3.803055
H	 0.067749	 0.034117	 -3.616438
C	 0.856143	 -0.908510	 -6.130668
H	 1.911588	 -2.131712	 -4.711608
H	 2.300723	 -0.437073	 -4.617744
C	 1.863451	 -1.056241	 -7.270480
H	 0.039720	 -1.612329	 -6.277569
H	 0.412534	 0.084319	 -6.167916
H	 2.301311	 -2.050427	 -7.280334
H	 1.393191	 -0.892682	 -8.235228
H	 2.674611	 -0.340127	 -7.172686

14 10 7 4 F
14 10 13 16 F
10 7 4 8 F
10 13 16 20 F
20 16 19 22 F
4 3 2 1 F
