%nprocshared=1
%mem=2GB
#HF/6-31G* nosymm scf=tight opt=ModRedundant

Mol

0 1
H	 2.591676	 2.013956	 0.335017
O	 3.341076	 1.666752	 -0.126416
C	 3.569581	 0.339145	 0.272707
C	 2.501715	 -0.629795	 -0.222817
H	 4.531011	 0.067855	 -0.144101
H	 3.658213	 0.277012	 1.356711
C	 1.106394	 -0.362725	 0.346939
H	 2.468330	 -0.580605	 -1.308097
H	 2.812274	 -1.639773	 0.039603
C	 0.068753	 -1.384356	 -0.126759
H	 0.789018	 0.636142	 0.060755
H	 1.151034	 -0.377731	 1.436031
C	 -1.327831	 -1.213312	 0.482042
H	 -0.004332	 -1.343485	 -1.212040
H	 0.429797	 -2.381825	 0.114909
C	 -2.057698	 0.068266	 0.070546
H	 -1.935134	 -2.067304	 0.189303
H	 -1.254017	 -1.253679	 1.567749
C	 -3.484884	 0.143238	 0.617316
H	 -2.086645	 0.131727	 -1.016305
H	 -1.504725	 0.940001	 0.412016
C	 -4.213486	 1.424496	 0.213360
H	 -4.049880	 -0.718250	 0.267880
H	 -3.458687	 0.070209	 1.702612
H	 -4.285026	 1.510762	 -0.867225
H	 -5.222191	 1.446922	 0.614167
H	 -3.692580	 2.304527	 0.580191

4 3 2 1 F
