%nprocshared=4
%mem=2GB
#HF/cc-pVTZ nosymm scf=tight opt=ModRedundant

Mol

0 1
H	 -1.835082	 1.385983	 0.000069
C	 -1.300516	 0.441153	 -0.000028
O	 -0.006604	 0.654344	 -0.000106
O	 -1.828920	 -0.612308	 0.000113
C	 0.852093	 -0.482521	 -0.000161
C	 0.412223	 -1.392551	 -1.122239
H	 0.783519	 -0.972027	 0.960900
H	 1.871839	 -0.149976	 -0.132434
H	 -0.611387	 -1.714433	 -0.978767
H	 1.047259	 -2.269947	 -1.149824
H	 0.482378	 -0.888240	 -2.077602

7 5 3 2 F
