%nprocshared=1
%mem=2GB
#HF/6-31G* nosymm scf=tight opt=ModRedundant

Mol

0 1
O	 -2.042549	 -1.228399	 -0.269030
C	 -1.653912	 -0.146171	 0.050137
C	 -0.332303	 0.024011	 0.778412
C	 -2.438579	 1.106236	 -0.272369
C	 0.557229	 -1.216331	 0.599097
H	 0.188874	 0.907675	 0.420788
H	 -0.552335	 0.163437	 1.831061
C	 1.888142	 -1.099075	 1.343377
H	 0.751756	 -1.379740	 -0.459458
H	 0.013085	 -2.086678	 0.953420
C	 2.770969	 -2.334867	 1.174137
H	 2.423700	 -0.220449	 0.990361
H	 1.693487	 -0.935335	 2.400669
H	 3.011430	 -2.505616	 0.128634
H	 2.274349	 -3.225108	 1.548681
H	 3.705766	 -2.224965	 1.714603
H	 -3.277823	 0.863061	 -0.908988
H	 -1.806773	 1.843019	 -0.759671
H	 -2.802853	 1.554979	 0.648059

5 3 2 4 F
