%nprocshared=4
%mem=2GB
#HF/6-31G* nosymm scf=tight opt=ModRedundant

Mol

0 1
O	 2.862325	 1.357334	 0.000267
C	 2.843464	 0.164689	 -0.000222
C	 1.546494	 -0.624492	 -0.000609
C	 4.124123	 -0.644674	 -0.000428
C	 0.291004	 0.242674	 0.000989
H	 1.557904	 -1.283758	 -0.867573
H	 1.558622	 -1.285963	 0.864672
C	 0.609479	 1.735574	 -0.096921
H	 -0.276879	 0.044758	 0.904575
H	 -0.347142	 -0.053724	 -0.825489
C	 -0.642021	 2.615047	 -0.094824
H	 1.252512	 2.025277	 0.732915
H	 1.180415	 1.926764	 -1.004416
C	 -0.331704	 4.109773	 -0.192355
H	 -1.213174	 2.425269	 0.812253
H	 -1.285177	 2.326915	 -0.924480
C	 -1.586826	 4.981750	 -0.189450
H	 0.310172	 4.399224	 0.637124
H	 0.237912	 4.300948	 -1.099464
H	 -2.161421	 4.838606	 0.721318
H	 -1.334497	 6.035409	 -0.258982
H	 -2.233655	 4.740455	 -1.028220
H	 4.165367	 -1.288615	 -0.874074
H	 4.976217	 0.020734	 -0.001915
H	 4.166763	 -1.286207	 0.874930

9 5 3 6 F
