%nprocshared=4
%mem=2GB
#HF/cc-pVTZ nosymm scf=tight opt=ModRedundant

Mol

0 1
H	 -3.498985	 1.253143	 -1.010443
O	 -3.458596	 0.315260	 -0.960865
C	 -3.176635	 -0.080824	 0.355601
C	 -1.763371	 0.265266	 0.799691
H	 -3.321825	 -1.153438	 0.379502
H	 -3.895468	 0.357385	 1.043382
C	 -0.790926	 -0.908892	 0.736241
H	 -1.390927	 1.084428	 0.186402
H	 -1.813175	 0.646757	 1.816732
C	 -1.105942	 -2.005657	 1.750067
H	 0.218553	 -0.545885	 0.894649
H	 -0.809386	 -1.329243	 -0.266490
C	 -2.580861	 -2.402640	 1.758071
H	 -0.489673	 -2.872946	 1.533475
H	 -0.821442	 -1.670107	 2.745217
C	 -3.536773	 -1.318068	 2.257855
H	 -2.707850	 -3.297494	 2.363018
H	 -2.871219	 -2.677833	 0.747833
C	 -3.379744	 -0.959400	 3.733607
H	 -4.555188	 -1.654342	 2.088960
H	 -3.410284	 -0.422959	 1.654365
H	 -3.495343	 -1.837009	 4.361711
H	 -4.129883	 -0.237378	 4.035628
H	 -2.409248	 -0.527021	 3.945249

7 4 3 2 F
