%nprocshared=1
%mem=2GB
#HF/6-31G* nosymm scf=tight 

Mol

0 1
O	 2.832563	 1.403548	 0.449503
C	 2.797388	 0.236238	 0.692212
C	 1.500876	 -0.553653	 0.684066
C	 4.055636	 -0.538323	 1.026908
C	 0.268195	 0.278095	 0.342120
H	 1.616870	 -1.377155	 -0.019338
H	 1.390114	 -1.022463	 1.660975
C	 -1.017287	 -0.550939	 0.343432
H	 0.408954	 0.739566	 -0.630177
H	 0.181755	 1.094532	 1.052124
C	 -2.259874	 0.272531	 0.000494
H	 -0.922413	 -1.369882	 -0.368170
H	 -1.151450	 -1.012154	 1.320851
C	 -3.549786	 -0.549746	 -0.000374
H	 -2.127161	 0.733485	 -0.976710
H	 -2.356211	 1.090980	 0.711730
C	 -4.809590	 0.315458	 -0.000369
H	 -3.560515	 -1.202009	 -0.871156
H	 -3.561123	 -1.202955	 0.869711
H	 -4.844746	 0.956611	 -0.876632
H	 -5.706986	 -0.295590	 -0.001609
H	 -4.845960	 0.954827	 0.877144
H	 4.202294	 -1.347801	 0.317785
H	 4.909696	 0.124027	 1.000307
H	 3.974073	 -0.985135	 2.013488

9 5 8 12 F
15 11 8 12 F
1 2 3 6 F
9 5 3 6 F
