%nprocshared=1
%mem=2GB
#HF/6-31G* nosymm scf=tight opt=ModRedundant

Mol

0 1
H	 -3.420663	 1.227371	 -1.044276
O	 -3.452007	 0.283848	 -0.965577
C	 -3.181085	 -0.079926	 0.364119
C	 -1.765924	 0.277073	 0.805136
H	 -3.327791	 -1.152017	 0.410903
H	 -3.905698	 0.375695	 1.036898
C	 -1.534759	 1.781140	 0.956345
H	 -1.551507	 -0.224423	 1.749323
H	 -1.067087	 -0.133880	 0.078524
C	 -0.118558	 2.127178	 1.420901
H	 -2.259231	 2.184515	 1.657158
H	 -1.730207	 2.267300	 0.001965
C	 0.107032	 3.634708	 1.564247
H	 0.073691	 1.630928	 2.369160
H	 0.603775	 1.722897	 0.712808
C	 1.537454	 4.036321	 1.942074
H	 -0.584520	 4.032942	 2.305098
H	 -0.148789	 4.115770	 0.622466
C	 1.977930	 3.583906	 3.335526
H	 1.616924	 5.119321	 1.886524
H	 2.229238	 3.643670	 1.199468
H	 1.296792	 3.951666	 4.098377
H	 2.968592	 3.962294	 3.568443
H	 2.015549	 2.502801	 3.418948

7 4 3 2 F
