%nprocshared=4
%mem=2GB
#HF/cc-pVTZ nosymm scf=tight opt=ModRedundant

Mol

0 1
H	 -1.660998	 0.311684	 2.263171
C	 -1.218543	 0.150800	 1.302815
C	 -1.931845	 0.415452	 0.090250
C	 0.030824	 -0.308546	 1.197385
H	 -2.938618	 0.785617	 0.140664
C	 -1.355181	 0.205636	 -1.097189
H	 0.628229	 -0.529952	 2.059492
N	 0.640204	 -0.530428	 -0.000115
H	 -1.858000	 0.392339	 -2.023621
C	 0.007216	 -0.295118	 -1.208330
C	 2.006991	 -1.033007	 -0.000020
O	 0.559257	 -0.496064	 -2.255762
H	 2.182444	 -1.636914	 -0.880881
H	 2.678769	 -0.195442	 -0.002236
H	 2.183828	 -1.633244	 0.883082

10 8 11 13 F
