%nprocshared=1
%mem=2GB
#HF/6-31G* nosymm scf=tight 

Mol

0 1
H	 2.432415	 1.644959	 -4.801521
C	 2.802426	 1.647058	 -3.780929
C	 1.653200	 1.727024	 -2.776907
H	 3.382286	 0.740125	 -3.637484
H	 3.477390	 2.492100	 -3.675444
C	 2.140947	 1.738907	 -1.326467
H	 0.986540	 0.884118	 -2.927489
H	 1.070906	 2.627092	 -2.967967
C	 1.013462	 1.836686	 -0.298613
H	 2.719928	 0.843436	 -1.130108
H	 2.808499	 2.585578	 -1.183070
C	 0.169600	 0.576866	 -0.172154
H	 1.431546	 2.029913	 0.688119
H	 0.364076	 2.682485	 -0.513317
C	 -1.181045	 0.701995	 0.511084
O	 0.556262	 -0.478409	 -0.576247
C	 -2.285934	 -0.139295	 -0.145128
H	 -1.449051	 1.751551	 0.493206
H	 -1.071135	 0.403303	 1.551943
C	 -3.651768	 0.085446	 0.506485
H	 -2.346596	 0.110469	 -1.202272
H	 -2.034737	 -1.195320	 -0.088721
C	 -4.759797	 -0.746382	 -0.137905
H	 -3.908762	 1.140117	 0.445781
H	 -3.588286	 -0.154158	 1.565709
H	 -4.868882	 -0.505166	 -1.191300
H	 -4.548009	 -1.809175	 -0.062213
H	 -5.715422	 -0.564821	 0.343442

10 6 3 2 F
12 15 17 21 F
