%nprocshared=4
%mem=2GB
#HF/cc-pVTZ nosymm scf=tight opt=ModRedundant

Mol

0 1
H	 2.476562	 -1.305901	 1.067059
N	 1.497938	 -1.119059	 1.084172
C	 0.798347	 -1.966006	 0.139135
C	 1.240213	 0.284746	 0.833669
H	 0.996476	 -3.003535	 0.379200
H	 1.119557	 -1.792240	 -0.889577
C	 -0.693217	 -1.700449	 0.232909
H	 1.758528	 0.878165	 1.577009
H	 1.589341	 0.600716	 -0.151162
C	 -0.251930	 0.547355	 0.926533
H	 -1.050327	 -2.021419	 1.215783
H	 -1.212914	 -2.289454	 -0.513487
N	 -0.976577	 -0.298712	 -0.000000
H	 -0.452548	 1.583652	 0.681671
H	 -0.578639	 0.381239	 1.957192
C	 -2.391156	 -0.021003	 -0.000000
H	 -2.853954	 -0.458728	 -0.875714
H	 -2.853954	 -0.458728	 0.875714
H	 -2.614037	 1.049773	 -0.000000

7 13 16 19 F
