%nprocshared=4
%mem=2GB
#HF/cc-pVTZ nosymm scf=tight opt=ModRedundant

Mol

0 1
H	 -0.982321	 2.156738	 -1.128698
C	 -0.827873	 1.212876	 -0.649946
C	 -1.904831	 0.488891	 -0.045660
C	 0.389920	 0.667692	 -0.597147
H	 -2.896495	 0.900133	 -0.070944
C	 -1.684272	 -0.689032	 0.546309
H	 1.245901	 1.149252	 -1.026727
N	 0.640204	 -0.530428	 -0.000115
H	 -2.464938	 -1.257683	 1.007999
C	 -0.355234	 -1.280475	 0.601850
C	 2.006991	 -1.033007	 -0.000020
O	 -0.117349	 -2.335488	 1.123962
H	 2.182444	 -1.636914	 -0.880881
H	 2.678769	 -0.195442	 -0.002236
H	 2.183828	 -1.633244	 0.883082

10 8 11 13 F
