%nprocshared=4
%mem=2GB
#HF/cc-pVTZ nosymm scf=tight opt=ModRedundant

Mol

0 1
H	 -3.258660	 -0.290394	 1.471450
C	 -3.307964	 -0.275695	 0.374072
C	 -2.653809	 0.914422	 -0.273689
O	 -3.855140	 -1.148880	 -0.205112
C	 -3.332834	 2.237118	 0.093836
H	 -1.604489	 0.917375	 -0.008636
H	 -2.726749	 0.761847	 -1.348261
C	 -3.169813	 2.622222	 1.562612
H	 -2.919251	 3.020344	 -0.532139
H	 -4.390022	 2.179836	 -0.153685
C	 -3.842187	 3.947442	 1.911160
H	 -2.110547	 2.681072	 1.798410
H	 -3.574956	 1.837368	 2.196088
C	 -3.667202	 4.335918	 3.378033
H	 -3.439741	 4.725284	 1.269799
H	 -4.903804	 3.881920	 1.683183
C	 -4.393112	 5.616444	 3.794212
H	 -2.607053	 4.438539	 3.597892
H	 -4.026510	 3.519546	 3.998306
C	 -3.862154	 6.891710	 3.143931
H	 -4.315825	 5.718259	 4.872197
H	 -5.452964	 5.514813	 3.575830
H	 -2.801970	 7.016379	 3.340053
H	 -4.001511	 6.888430	 2.069569
H	 -4.373801	 7.763725	 3.534790

6 3 2 4 F
