%nprocshared=4
%mem=2GB
#HF/cc-pVTZ nosymm scf=tight 
prop=(read,field)

Mol

0 1
H	 -1.783044	 0.237568	 0.873995
C	 -1.254769	 -0.129921	 0.000201
C	 0.145815	 0.408861	 0.000132
H	 -1.783488	 0.238274	 -0.873022
H	 -1.246388	 -1.209623	 -0.000218
O	 1.121393	 -0.257818	 -0.000291
H	 0.225854	 1.502654	 -0.000102

@grid.dat /N
