%nprocshared=4
%mem=2GB
#HF/cc-pVTZ nosymm scf=tight opt=ModRedundant

Mol

0 1
H	 -4.522780	 0.146486	 6.048824
C	 -3.514769	 -0.215404	 5.882040
C	 -3.170796	 -0.223745	 4.396464
H	 -2.837213	 0.426859	 6.433974
H	 -3.446343	 -1.211585	 6.307178
C	 -1.759626	 -0.738778	 4.122035
H	 -3.272671	 0.780012	 4.000192
H	 -3.888282	 -0.845050	 3.865410
C	 -1.389480	 -0.764374	 2.642432
H	 -1.041098	 -0.128199	 4.654706
H	 -1.668750	 -1.747912	 4.513408
C	 -1.158526	 0.603377	 2.022431
H	 -0.464884	 -1.318928	 2.503295
H	 -2.139884	 -1.294116	 2.062962
C	 -1.180025	 0.697761	 0.509157
O	 -0.947558	 1.563867	 2.690433
C	 -2.285431	 -0.137488	 -0.145671
H	 -0.209921	 0.373472	 0.157623
H	 -1.304974	 1.741273	 0.232271
C	 -3.646545	 0.082747	 0.508954
H	 -2.348635	 0.118247	 -1.199806
H	 -2.034895	 -1.192387	 -0.096473
C	 -4.757412	 -0.737227	 -0.138149
H	 -3.900211	 1.137405	 0.459735
H	 -3.580878	 -0.166775	 1.564416
H	 -4.867876	 -0.486707	 -1.187777
H	 -4.549650	 -1.800049	 -0.072540
H	 -5.709585	 -0.556397	 0.346597

16 12 15 17 F
