%nprocshared=4
%mem=2GB
#HF/cc-pVTZ nosymm scf=tight opt=ModRedundant

Mol

0 1
H	 1.651322	 -0.822465	 0.000000
O	 0.729993	 -1.034364	 0.000000
C	 0.037305	 0.100061	 0.000000
C	 -1.018193	 0.114195	 -1.064801
O	 0.255038	 0.974579	 0.764596
H	 -0.555055	 -0.016084	 -2.034336
H	 -1.554005	 1.048218	 -1.029700
H	 -1.697888	 -0.713906	 -0.910750

4 3 2 1 F
