%nprocshared=4
%mem=2GB
#HF/6-31G* nosymm scf=tight opt=ModRedundant

Mol

0 1
H	 -2.646374	 -0.642757	 1.268656
C	 -2.083525	 -0.384536	 0.393091
O	 -0.807605	 -0.127164	 0.768327
F	 -2.118945	 -1.383102	 -0.486752
F	 -2.621877	 0.670592	 -0.209486
C	 -0.597284	 0.366782	 2.042874
C	 0.364404	 1.540718	 1.911762
Cl	 0.082620	 -0.881631	 3.099477
H	 -1.504592	 0.722075	 2.499309
F	 0.602706	 2.073511	 3.091373
F	 -0.192220	 2.462348	 1.151363
F	 1.504460	 1.188168	 1.369587

6 3 2 4 F
