%nprocshared=4
%mem=2GB
#HF/cc-pVTZ nosymm scf=tight opt=ModRedundant

Mol

0 1
H	 2.341977	 -1.816528	 -1.560757
O	 2.686225	 -1.027477	 -1.181793
C	 1.715972	 -0.290286	 -0.612810
C	 2.087879	 0.904787	 -0.013974
C	 0.394147	 -0.681595	 -0.609243
H	 3.121091	 1.190146	 -0.028102
C	 1.138014	 1.700683	 0.584072
H	 0.079239	 -1.597994	 -1.063493
C	 -0.532034	 0.141680	 0.000000
H	 1.434694	 2.622553	 1.044380
C	 -0.195975	 1.329000	 0.600514
N	 -1.937041	 -0.281114	 0.000000
H	 -0.944126	 1.936518	 1.060855
O	 -2.159542	 -1.446261	 0.000000
O	 -2.764978	 0.565773	 0.000000

11 9 12 14 F
