%nprocshared=1
%mem=2GB
#HF/6-31G* nosymm scf=tight opt=ModRedundant

Mol

0 1
O	 0.625848	 1.349995	 -0.000749
C	 0.486307	 0.169203	 0.000779
C	 1.608116	 -0.841643	 0.000302
O	 -0.698257	 -0.426125	 0.001050
C	 2.990107	 -0.200498	 -0.000684
H	 1.468623	 -1.481519	 -0.865924
H	 1.469683	 -1.481289	 0.866878
H	 3.129736	 0.423364	 -0.875135
H	 3.757882	 -0.966877	 -0.001197
H	 3.130964	 0.423383	 0.873533
C	 -1.479637	 -0.335792	 1.187931
C	 -2.771780	 -1.084485	 0.938664
H	 -1.658785	 0.706603	 1.413547
H	 -0.922278	 -0.762970	 2.010403
H	 -3.315470	 -0.647847	 0.108659
H	 -3.400451	 -1.040681	 1.822124
H	 -2.575046	 -2.125508	 0.708828

11 4 2 3 F
