%nprocshared=4
%mem=2GB
#HF/cc-pVTZ nosymm scf=tight opt=ModRedundant

Mol

0 1
H	 -3.436473	 1.252944	 -1.023892
O	 -3.458596	 0.315260	 -0.960865
C	 -3.176635	 -0.080824	 0.355601
C	 -1.763371	 0.265266	 0.799691
H	 -3.321825	 -1.153438	 0.379502
H	 -3.895468	 0.357385	 1.043382
C	 -1.370480	 1.715773	 0.535139
H	 -1.662742	 0.045076	 1.861413
H	 -1.075320	 -0.401559	 0.285572
C	 0.037910	 2.054364	 1.016559
H	 -2.086992	 2.373340	 1.014857
H	 -1.443452	 1.912694	 -0.531821
C	 0.426769	 3.506152	 0.744259
H	 0.106354	 1.845331	 2.079814
H	 0.754135	 1.395864	 0.529469
C	 1.859132	 3.873284	 1.135920
H	 -0.265672	 4.165802	 1.262175
H	 0.298248	 3.706389	 -0.315933
C	 2.142024	 3.829333	 2.635648
H	 2.067833	 4.874912	 0.772657
H	 2.552092	 3.214196	 0.619365
H	 1.459660	 4.474963	 3.179356
H	 3.151068	 4.164929	 2.846474
H	 2.041915	 2.828680	 3.038486

7 4 3 2 F
