%nprocshared=1
%mem=2GB
#HF/6-31G* nosymm scf=tight 

Mol

0 1
H	 2.591676	 2.013956	 0.335017
O	 3.341076	 1.666752	 -0.126416
C	 3.569581	 0.339145	 0.272707
C	 2.539767	 -0.640285	 -0.279495
H	 4.553106	 0.084646	 -0.100901
H	 3.608576	 0.269204	 1.359154
C	 1.480373	 -1.069244	 0.738614
H	 2.056071	 -0.183831	 -1.139177
H	 3.068986	 -1.519583	 -0.642992
C	 0.494144	 -2.093333	 0.169919
H	 0.936789	 -0.192407	 1.079259
H	 1.970983	 -1.494080	 1.614489
C	 -0.536858	 -2.621055	 1.174351
H	 -0.024137	 -1.656520	 -0.681800
H	 1.058530	 -2.937869	 -0.219861
C	 -1.543094	 -1.579843	 1.672190
H	 -1.084566	 -3.435957	 0.705559
H	 -0.017816	 -3.057370	 2.026444
C	 -2.613725	 -2.176040	 2.588561
H	 -2.025442	 -1.109034	 0.816742
H	 -1.026739	 -0.785667	 2.206011
C	 -3.615674	 -1.137657	 3.092071
H	 -3.145623	 -2.962002	 2.056737
H	 -2.133154	 -2.655383	 3.438953
H	 -4.136993	 -0.662910	 2.265593
H	 -4.362179	 -1.591100	 3.736862
H	 -3.118918	 -0.356268	 3.660427

14 10 7 4 F
14 10 13 16 F
10 7 4 8 F
10 13 16 20 F
20 16 19 22 F
4 3 2 1 F
