%nprocshared=4
%mem=2GB
#HF/cc-pVTZ nosymm scf=tight opt=ModRedundant

Mol

0 1
H	 2.737634	 -1.021297	 1.810569
C	 2.096784	 -0.997396	 0.935626
C	 0.917263	 -0.064144	 1.172850
H	 1.745771	 -2.002843	 0.738686
H	 2.703721	 -0.686134	 0.094509
N	 0.000297	 0.000045	 0.046090
H	 0.373750	 -0.424527	 2.035307
H	 1.279939	 0.932630	 1.439004
C	 -1.359159	 0.315706	 0.454404
C	 0.479819	 0.876571	 -1.010454
C	 -2.416729	 -0.286720	 -0.460525
H	 -1.478729	 1.390261	 0.442008
H	 -1.539692	 0.003361	 1.486761
C	 -0.027123	 0.485611	 -2.391974
H	 1.560098	 0.833926	 -1.025894
H	 0.221398	 1.918385	 -0.801277
H	 -2.285276	 0.073129	 -1.473515
H	 -2.371743	 -1.368476	 -0.483209
H	 -3.408658	 -0.007405	 -0.121593
H	 0.284869	 -0.522748	 -2.634422
H	 -1.107278	 0.524903	 -2.459035
H	 0.372122	 1.159703	 -3.142318

3 6 9 11 F
