%nprocshared=4
%mem=2GB
#HF/cc-pVTZ nosymm scf=tight opt=ModRedundant

Mol

0 1
H	 -1.752232	 -2.214755	 -0.011938
C	 -1.343852	 -1.221619	 -0.018179
N	 -0.058800	 -1.097635	 -0.261688
C	 -2.148159	 -0.124236	 0.219734
C	 0.449026	 0.119242	 -0.273393
H	 -3.196988	 -0.237571	 0.417076
N	 -1.655094	 1.094230	 0.209506
C	 -0.370318	 1.215445	 -0.035100
C	 1.924033	 0.265863	 -0.538106
H	 0.033214	 2.210441	 -0.046812
C	 2.431133	 -0.707301	 -1.603587
H	 2.109460	 1.282849	 -0.862325
H	 2.471326	 0.117979	 0.385374
H	 3.486519	 -0.548694	 -1.790505
H	 1.895875	 -0.566786	 -2.533498
H	 2.296622	 -1.735930	 -1.288348

12 9 5 3 F
