%nprocshared=1
%mem=2GB
#HF/6-31G* nosymm scf=tight 

Mol

0 1
O	 2.617943	 0.431530	 -1.172728
C	 2.701189	 0.057885	 -0.047330
C	 2.105429	 0.748211	 1.155711
O	 3.347903	 -1.046386	 0.304773
C	 1.339046	 2.020060	 0.799100
H	 1.476463	 0.022199	 1.660190
H	 2.920825	 0.962287	 1.842005
C	 0.817599	 2.788652	 2.018056
H	 0.512228	 1.768141	 0.141811
H	 1.992086	 2.667345	 0.223789
C	 -0.262098	 2.062394	 2.825469
H	 0.412970	 3.736476	 1.670740
H	 1.651157	 3.038690	 2.672786
C	 -0.827105	 2.913867	 3.964223
H	 -1.072076	 1.770907	 2.158544
H	 0.137774	 1.140471	 3.241562
C	 -1.903173	 2.196382	 4.781183
H	 -1.241671	 3.833327	 3.554390
H	 -0.016034	 3.214625	 4.625590
C	 -2.464904	 3.054871	 5.913948
H	 -2.713966	 1.894259	 4.121654
H	 -1.489416	 1.279253	 5.195260
H	 -3.224855	 2.519141	 6.474373
H	 -2.917539	 3.964378	 5.529092
H	 -1.683382	 3.345087	 6.610563
C	 4.728119	 -1.109107	 -0.004993
H	 4.882018	 -1.033965	 -1.071845
H	 5.068212	 -2.067527	 0.355250
H	 5.265056	 -0.311663	 0.488280

21 17 14 11 F
17 14 11 15 F
15 11 8 5 F
6 3 5 9 F
11 8 5 9 F
2 4 26 27 F
6 3 2 1 F
