%nprocshared=4
%mem=2GB
#HF/cc-pVTZ nosymm scf=tight opt=ModRedundant

Mol

0 1
O	 3.219313	 0.959291	 -0.614106
C	 2.698710	 0.058177	 -0.050237
C	 1.246364	 -0.005813	 0.348416
O	 3.344101	 -1.038700	 0.312317
C	 0.453207	 1.232821	 -0.049003
H	 0.839270	 -0.907818	 -0.092281
H	 1.216683	 -0.160521	 1.422434
C	 -0.998367	 1.217982	 0.432195
H	 0.481498	 1.345443	 -1.127236
H	 0.951413	 2.105557	 0.354893
C	 -1.882951	 0.151251	 -0.211235
H	 -1.429490	 2.193659	 0.228843
H	 -1.019755	 1.099323	 1.513279
C	 -2.790426	 0.708744	 -1.304614
H	 -1.252046	 -0.628351	 -0.632009
H	 -2.498896	 -0.329040	 0.543396
C	 -3.683130	 -0.347059	 -1.950472
H	 -2.180403	 1.179217	 -2.071991
H	 -3.413278	 1.496629	 -0.887290
C	 -4.585364	 0.217174	 -3.042896
H	 -3.062164	 -1.134908	 -2.368105
H	 -4.295522	 -0.816325	 -1.185213
H	 -5.205198	 -0.557340	 -3.479837
H	 -4.001345	 0.662768	 -3.841318
H	 -5.243689	 0.984540	 -2.649239
C	 4.720529	 -1.114346	 0.001449
H	 4.874321	 -1.055557	 -1.065852
H	 5.057824	 -2.067950	 0.373977
H	 5.264321	 -0.313596	 0.480350

15 11 8 5 F
