%nprocshared=1
%mem=2GB
#HF/6-31G* nosymm scf=tight 

Mol

0 1
H	 2.011757	 2.766901	 -1.497965
O	 2.841717	 2.365344	 -1.710070
C	 3.329955	 1.668254	 -0.592151
C	 2.566404	 0.379768	 -0.306631
H	 4.363546	 1.438437	 -0.816981
H	 3.325715	 2.309528	 0.288491
C	 1.098873	 0.596536	 0.070508
H	 2.627245	 -0.258777	 -1.184084
H	 3.074204	 -0.143136	 0.502120
C	 0.374610	 -0.710865	 0.403618
H	 0.589314	 1.094845	 -0.749494
H	 1.040701	 1.265802	 0.929018
C	 -1.075814	 -0.542521	 0.870811
H	 0.398919	 -1.365172	 -0.465945
H	 0.930421	 -1.225041	 1.184898
C	 -2.037799	 -0.007733	 -0.193645
H	 -1.439315	 -1.509595	 1.212063
H	 -1.099575	 0.112601	 1.740344
C	 -3.489788	 0.042957	 0.286558
H	 -1.975791	 -0.635462	 -1.081464
H	 -1.735685	 0.989624	 -0.503982
C	 -4.216917	 1.317354	 -0.141063
H	 -4.025645	 -0.823308	 -0.095450
H	 -3.513059	 -0.038752	 1.371301
H	 -4.239342	 1.411634	 -1.223113
H	 -5.243387	 1.322503	 0.212445
H	 -3.726170	 2.201406	 0.256408

14 10 7 4 F
14 10 13 16 F
10 7 4 8 F
8 4 3 2 F
10 13 16 20 F
4 3 2 1 F
