%nprocshared=4
%mem=2GB
#HF/cc-pVTZ nosymm scf=tight opt=ModRedundant

Mol

0 1
H	 -2.644180	 -0.653737	 1.272255
C	 -2.092774	 -0.380414	 0.391915
O	 -0.808934	 -0.154049	 0.752536
F	 -2.163230	 -1.351640	 -0.507133
F	 -2.627232	 0.691260	 -0.169301
C	 0.085006	 0.250800	 -0.215074
C	 -0.684380	 0.366226	 -1.528847
Cl	 1.413558	 -0.911404	 -0.387613
H	 0.522912	 1.209407	 0.001624
F	 0.109042	 0.763215	 -2.491087
F	 -1.632515	 1.262543	 -1.391113
F	 -1.236284	 -0.762648	 -1.879982

9 6 3 2 F
