%nprocshared=4
%mem=2GB
#HF/cc-pVTZ nosymm scf=tight opt=ModRedundant

Mol

0 1
O	 1.202901	 -0.443083	 3.128871
C	 0.913176	 -1.239721	 2.296490
C	 -0.174373	 -0.949309	 1.281135
C	 1.621143	 -2.569677	 2.192720
C	 0.376695	 -0.140025	 0.100361
H	 -0.947116	 -0.380309	 1.782351
H	 -0.610840	 -1.875253	 0.921986
C	 1.630207	 -0.772146	 -0.501001
H	 -0.402119	 -0.056706	 -0.647125
H	 0.608304	 0.871376	 0.425512
C	 2.907848	 -0.545876	 0.309149
H	 1.772784	 -0.391628	 -1.509394
H	 1.468529	 -1.842059	 -0.599744
C	 3.373802	 0.906639	 0.372125
H	 3.699140	 -1.146831	 -0.127906
H	 2.764321	 -0.923458	 1.318191
H	 3.519798	 1.311927	 -0.623875
H	 4.316899	 0.983758	 0.900700
H	 2.661122	 1.540651	 0.885346
H	 0.927858	 -3.363939	 2.450601
H	 2.464746	 -2.595533	 2.865205
H	 1.950385	 -2.749878	 1.175509

3 5 8 12 F
