%nprocshared=1
%mem=2GB
#HF/6-31G* nosymm scf=tight 

Mol

0 1
O	 -0.966305	 -2.829703	 -0.733647
C	 -0.780536	 -1.832268	 -1.362175
C	 -0.889235	 -0.467034	 -0.705952
C	 -0.398384	 -1.875192	 -2.824875
C	 0.379448	 -0.143569	 0.099626
H	 -1.744880	 -0.489510	 -0.039866
H	 -1.061635	 0.303198	 -1.452307
C	 1.631333	 -0.777471	 -0.511575
H	 0.482768	 0.934507	 0.149241
H	 0.263088	 -0.495696	 1.123449
C	 2.915987	 -0.544314	 0.291766
H	 1.766672	 -0.399098	 -1.523130
H	 1.471257	 -1.849544	 -0.605828
C	 3.373361	 0.914346	 0.347591
H	 3.708709	 -1.142521	 -0.150311
H	 2.780642	 -0.921148	 1.303579
H	 3.506512	 1.320010	 -0.651625
H	 4.322697	 0.999599	 0.867103
H	 2.660624	 1.545032	 0.868198
H	 -1.198159	 -1.447863	 -3.424053
H	 -0.226017	 -2.897112	 -3.132694
H	 0.491456	 -1.279640	 -3.007376

6 3 2 1 F
3 5 8 12 F
12 8 11 15 F
