%nprocshared=1
%mem=2GB
#HF/6-31G* nosymm scf=tight 
prop=(read,field)

Mol

0 1
H	 1.501186	 -1.152661	 0.000000
C	 1.458664	 -0.070260	 0.000000
C	 0.022417	 0.370313	 0.000000
H	 1.962111	 0.304824	 -0.882627
H	 1.962111	 0.304824	 0.882627
F	 -0.609248	 -0.118676	 -1.083298
F	 -0.609248	 -0.118676	 1.083298
H	 -0.104334	 1.441860	 0.000000

@grid.dat /N
