%nprocshared=4
%mem=2GB
#HF/6-31G* nosymm scf=tight opt=ModRedundant

Mol

0 1
H	 2.005350	 -3.583195	 1.183805
C	 2.222516	 -2.610844	 0.753546
C	 0.955862	 -1.763494	 0.641531
H	 2.962678	 -2.128636	 1.385893
H	 2.676227	 -2.774767	 -0.219862
C	 1.217350	 -0.386724	 0.039429
H	 0.504536	 -1.632810	 1.620109
H	 0.224046	 -2.289203	 0.030412
N	 0.000003	 0.397874	 -0.023260
H	 1.928089	 0.148327	 0.663556
H	 1.691157	 -0.499897	 -0.941426
C	 -1.217365	 -0.386708	 0.039277
H	 -0.000031	 1.072115	 0.718656
C	 -2.452633	 0.504241	 -0.042481
H	 -1.215291	 -1.074557	 -0.802042
H	 -1.269739	 -1.003477	 0.942735
C	 -3.758029	 -0.289423	 -0.010781
H	 -2.394220	 1.093569	 -0.952170
H	 -2.440793	 1.210787	 0.785871
H	 -3.816659	 -0.981993	 -0.845726
H	 -4.617837	 0.370165	 -0.069296
H	 -3.847478	 -0.867502	 0.904682

10 6 9 12 F
