%nprocshared=4
%mem=2GB
#HF/cc-pVTZ nosymm scf=tight opt=ModRedundant

Mol

0 1
H	 -0.493415	 -1.744877	 0.812864
C	 -0.214530	 -0.732795	 1.083180
N	 0.526300	 -0.128137	 0.000000
H	 0.407696	 -0.788761	 1.967343
H	 -1.129320	 -0.195665	 1.342451
C	 -0.247113	 0.037112	 -1.209233
H	 0.895961	 0.751013	 0.290008
H	 -0.996493	 -0.743733	 -1.271440
H	 0.397975	 -0.057351	 -2.073512
H	 -0.763794	 0.997171	 -1.271673

2 3 6 8 F
