%nprocshared=4
%mem=2GB
#HF/cc-pVTZ nosymm scf=tight opt=ModRedundant

Mol

0 1
H	 -2.594104	 1.632329	 2.008112
C	 -2.474085	 0.672572	 1.549015
C	 -1.388668	 0.418528	 0.860047
H	 -3.248977	 -0.059016	 1.667839
O	 -1.189946	 -0.765863	 0.237511
H	 -0.602122	 1.141339	 0.741649
C	 0.026572	 -0.995256	 -0.379403
C	 1.057223	 0.049888	 -0.004615
H	 -0.054361	 -1.010670	 -1.459674
H	 0.397526	 -1.952058	 -0.044198
F	 2.203233	 -0.234060	 -0.590375
F	 0.698147	 1.254887	 -0.392621
F	 1.266440	 0.094219	 1.288722

3 5 7 9 F
