%nprocshared=1
%mem=2GB
#HF/6-31G* nosymm scf=tight 

Mol

0 1
O	 0.885692	 0.153752	 -0.858595
C	 1.705091	 0.115954	 0.001797
C	 1.738110	 1.002375	 1.222877
O	 2.721346	 -0.737485	 -0.000216
C	 0.588069	 2.003457	 1.276583
H	 1.736817	 0.354016	 2.094853
H	 2.700301	 1.507182	 1.231678
C	 0.645648	 2.887257	 2.523436
H	 -0.354904	 1.466636	 1.248053
H	 0.610167	 2.621722	 0.384637
C	 -0.501278	 3.896936	 2.593914
H	 0.626776	 2.261253	 3.414368
H	 1.594512	 3.421074	 2.547505
C	 -0.442525	 4.780533	 3.839329
H	 -1.449876	 3.365104	 2.572559
H	 -0.483235	 4.523589	 1.705028
H	 -0.493625	 4.184438	 4.746122
H	 -1.267911	 5.485335	 3.860381
H	 0.480986	 5.351826	 3.871918
C	 4.024888	 -0.184556	 -0.001949
H	 4.179030	 0.422472	 -0.882452
H	 4.701782	 -1.024608	 -0.003642
H	 4.181981	 0.421185	 0.878906

15 11 8 12 F
9 5 8 12 F
1 2 3 6 F
9 5 3 6 F
