%nprocshared=1
%mem=2GB
#HF/6-31G* nosymm scf=tight opt=ModRedundant

Mol

0 1
H	 -3.892951	 0.981613	 -0.358725
C	 -3.196921	 0.361773	 0.172313
C	 -2.076860	 -0.007332	 -0.404944
H	 -3.439953	 0.057760	 1.173024
O	 -2.063673	 -0.712122	 -1.566821
H	 -1.108737	 0.240570	 -0.006851
C	 -0.852202	 -1.213538	 -2.017120
C	 -0.547839	 -2.566311	 -1.414077
H	 -0.023443	 -0.550625	 -1.794856
H	 -0.924190	 -1.336870	 -3.087677
F	 0.598165	 -3.018609	 -1.901836
F	 -0.426391	 -2.501051	 -0.098470
F	 -1.483274	 -3.452006	 -1.687746

6 3 2 1 F
