%nprocshared=4
%mem=2GB
#HF/cc-pVTZ nosymm scf=tight opt=ModRedundant

Mol

0 1
H	 -2.598156	 -3.205683	 -0.760835
O	 -2.532969	 -2.271570	 -0.687493
C	 -1.241042	 -1.908326	 -0.278353
C	 -1.175688	 -0.398187	 -0.171891
H	 -1.005929	 -2.358149	 0.684016
H	 -0.501647	 -2.261461	 -0.994188
C	 0.196029	 0.106276	 0.266738
H	 -1.935295	 -0.070000	 0.530612
H	 -1.438674	 0.026060	 -1.135618
C	 1.330220	 -0.826136	 -0.155230
H	 0.359542	 1.097229	 -0.145561
H	 0.212134	 0.218135	 1.348778
C	 2.719700	 -0.407669	 0.328325
H	 1.339388	 -0.911200	 -1.239363
H	 1.119001	 -1.821953	 0.224128
C	 3.241564	 0.893452	 -0.276737
H	 3.418299	 -1.204729	 0.093035
H	 2.711776	 -0.323368	 1.411960
H	 3.254204	 0.841071	 -1.360784
H	 2.634460	 1.745075	 0.005842
H	 4.254264	 1.092401	 0.054971

8 4 7 10 F
