%nprocshared=4
%mem=2GB
#HF/cc-pVTZ nosymm scf=tight opt=ModRedundant

Mol

0 1
O	 3.042008	 -0.988224	 0.050560
C	 2.574127	 -2.072921	 -0.023620
C	 3.300766	 -3.312667	 -0.478981
O	 1.317782	 -2.342573	 0.292610
C	 4.627018	 -3.019294	 -1.169084
H	 3.427293	 -3.941033	 0.394345
H	 2.628498	 -3.852602	 -1.138418
C	 5.577230	 -2.154282	 -0.339813
H	 4.435921	 -2.542807	 -2.124339
H	 5.112507	 -3.960166	 -1.397274
C	 5.741956	 -2.586471	 1.116375
H	 5.204983	 -1.134348	 -0.357980
H	 6.553011	 -2.126712	 -0.819783
C	 6.013153	 -4.080861	 1.268157
H	 6.559935	 -2.026487	 1.563812
H	 4.851950	 -2.332976	 1.684852
C	 4.820641	 -4.956127	 0.893193
H	 6.301784	 -4.290688	 2.295291
H	 6.865948	 -4.355540	 0.651589
C	 5.098702	 -6.447480	 1.049152
H	 3.967776	 -4.682963	 1.508598
H	 4.532649	 -4.749636	 -0.134075
H	 4.233104	 -7.039561	 0.774993
H	 5.355453	 -6.692507	 2.074408
H	 5.925417	 -6.759422	 0.419515
C	 0.824678	 -3.623490	 -0.043565
H	 -0.139967	 -3.792406	 0.411591
H	 1.544729	 -4.329140	 0.337866
H	 0.731980	 -3.727573	 -1.114467

6 3 2 1 F
