%nprocshared=4
%mem=2GB
#HF/cc-pVTZ nosymm scf=tight opt=ModRedundant

Mol

0 1
H	 4.392361	 -2.569041	 -0.155945
C	 3.903836	 -1.991148	 -0.931993
C	 2.470703	 -1.645352	 -0.542279
H	 4.489750	 -1.092990	 -1.093963
H	 3.932822	 -2.574493	 -1.846688
C	 1.746441	 -0.839283	 -1.618228
H	 2.477724	 -1.085182	 0.385675
H	 1.919489	 -2.563094	 -0.350611
C	 0.307319	 -0.483886	 -1.258354
H	 2.295196	 0.072580	 -1.818735
H	 1.735372	 -1.411141	 -2.541612
C	 0.166485	 0.574257	 -0.177158
H	 -0.205319	 -0.091774	 -2.133120
H	 -0.249538	 -1.368423	 -0.963357
C	 -1.180025	 0.697761	 0.509157
O	 1.066334	 1.295701	 0.111052
C	 -2.285431	 -0.137488	 -0.145671
H	 -1.447360	 1.745713	 0.496200
H	 -1.065514	 0.394096	 1.546399
C	 -3.646545	 0.082747	 0.508954
H	 -2.348635	 0.118247	 -1.199806
H	 -2.034895	 -1.192387	 -0.096473
C	 -4.757412	 -0.737227	 -0.138149
H	 -3.900211	 1.137405	 0.459735
H	 -3.580878	 -0.166775	 1.564416
H	 -4.867876	 -0.486707	 -1.187777
H	 -4.549650	 -1.800049	 -0.072540
H	 -5.709585	 -0.556397	 0.346597

16 12 15 17 F
