%nprocshared=4
%mem=2GB
#HF/cc-pVTZ nosymm scf=tight 
prop=(read,field)

Mol

0 1
H	 3.458847	 0.139273	 -0.762964
C	 2.748902	 -0.051722	 0.031252
C	 1.322050	 0.099780	 -0.484284
H	 2.929191	 -1.053880	 0.403468
H	 2.954027	 0.646706	 0.834659
C	 0.308303	 -0.162612	 0.622632
H	 1.143114	 -0.594393	 -1.295973
H	 1.169278	 1.100102	 -0.870230
N	 -1.069606	 -0.004074	 0.085329
H	 0.371378	 -1.172925	 0.991275
H	 0.400137	 0.548882	 1.426205
O	 -1.585155	 -0.965463	 -0.377831
O	 -1.548287	 1.079350	 0.130043

@grid.dat /N
