%nprocshared=4
%mem=2GB
#HF/cc-pVTZ nosymm scf=tight opt=ModRedundant

Mol

0 1
H	 2.427871	 -0.135970	 -0.835693
C	 1.804491	 -0.767375	 -0.212890
N	 0.526300	 -0.128137	 0.000000
H	 2.312125	 -0.897837	 0.734384
H	 1.731641	 -1.742650	 -0.698795
C	 -0.247113	 0.037112	 -1.209233
H	 -0.001344	 -0.639054	 0.673955
H	 -0.996493	 -0.743733	 -1.271440
H	 0.397975	 -0.057351	 -2.073512
H	 -0.763794	 0.997171	 -1.271673

2 3 6 8 F
