%nprocshared=4
%mem=2GB
#HF/cc-pVTZ nosymm scf=tight opt=ModRedundant

Mol

0 1
H	 -3.436473	 1.252944	 -1.023892
O	 -3.458596	 0.315260	 -0.960865
C	 -3.176635	 -0.080824	 0.355601
C	 -1.763371	 0.265266	 0.799691
H	 -3.321825	 -1.153438	 0.379502
H	 -3.895468	 0.357385	 1.043382
C	 -0.680161	 -0.561347	 0.112895
H	 -1.586175	 1.324682	 0.620519
H	 -1.704502	 0.126249	 1.876537
C	 0.732788	 -0.178651	 0.545435
H	 -0.774135	 -0.451352	 -0.961807
H	 -0.849741	 -1.613895	 0.327119
C	 1.811899	 -1.013069	 -0.141816
H	 0.891090	 0.875372	 0.338394
H	 0.824456	 -0.294936	 1.623365
C	 3.241330	 -0.722044	 0.318487
H	 1.746250	 -0.867872	 -1.217667
H	 1.601492	 -2.064466	 0.034012
C	 3.755645	 0.670660	 -0.037883
H	 3.901705	 -1.460141	 -0.126364
H	 3.307997	 -0.866215	 1.393749
H	 3.695425	 0.845746	 -1.107367
H	 4.792829	 0.784322	 0.256350
H	 3.190410	 1.451100	 0.457120

7 4 3 2 F
