%nprocshared=4
%mem=2GB
#HF/cc-pVTZ nosymm scf=tight opt=ModRedundant

Mol

0 1
O	 -2.817697	 1.304178	 0.001046
C	 -2.664672	 0.129869	 0.003507
C	 -3.797908	 -0.860100	 -0.001145
O	 -1.481217	 -0.452708	 0.001092
H	 -4.408836	 -0.679689	 -0.875387
H	 -3.443486	 -1.878443	 -0.002770
H	 -4.412123	 -0.683688	 0.871605
C	 -0.332055	 0.384012	 -0.000250
C	 0.892252	 -0.506059	 -0.000295
H	 -0.360822	 1.020205	 -0.874146
H	 -0.359817	 1.021310	 0.872861
C	 0.705537	 -1.739997	 0.877712
H	 1.745313	 0.068983	 0.345080
H	 1.109030	 -0.806282	 -1.020363
C	 1.928077	 -2.653393	 0.892817
H	 0.478686	 -1.430284	 1.894862
H	 -0.157177	 -2.303924	 0.531754
C	 1.741469	 -3.887179	 1.769149
H	 2.790476	 -2.091463	 1.240033
H	 2.155642	 -2.963666	 -0.123073
H	 1.546155	 -3.609566	 2.799503
H	 2.625852	 -4.513473	 1.757788
H	 0.906185	 -4.488359	 1.426020

13 9 8 10 F
