%nprocshared=4
%mem=2GB
#HF/6-31G* nosymm scf=tight opt=ModRedundant

Mol

0 1
H	 2.591676	 2.013956	 0.335017
O	 3.341076	 1.666752	 -0.126416
C	 3.569581	 0.339145	 0.272707
C	 2.539767	 -0.640285	 -0.279495
H	 4.553106	 0.084646	 -0.100901
H	 3.608576	 0.269204	 1.359154
C	 1.115811	 -0.397273	 0.226630
H	 2.556196	 -0.582511	 -1.364741
H	 2.852081	 -1.648031	 -0.010655
C	 1.074899	 0.020426	 1.699271
H	 0.528955	 -1.301236	 0.089454
H	 0.644072	 0.377731	 -0.377664
C	 -0.321417	 0.359186	 2.233954
H	 1.511298	 -0.769628	 2.307726
H	 1.714093	 0.891093	 1.829925
C	 -1.290726	 -0.824251	 2.300250
H	 -0.212961	 0.774832	 3.233600
H	 -0.757727	 1.149164	 1.624523
C	 -2.633438	 -0.460059	 2.937373
H	 -0.832181	 -1.632499	 2.868214
H	 -1.470692	 -1.217002	 1.302421
C	 -3.605205	 -1.637999	 2.998947
H	 -2.463573	 -0.079913	 3.942421
H	 -3.088598	 0.353962	 2.376941
H	 -3.192058	 -2.457067	 3.580893
H	 -4.546022	 -1.348773	 3.457036
H	 -3.824716	 -2.018079	 2.005107

10 7 4 8 F
