%nprocshared=1
%mem=2GB
#HF/6-31G* nosymm scf=tight opt=ModRedundant

Mol

0 1
H	 -1.574981	 -1.894450	 -2.785015
C	 -2.289132	 -1.399014	 -2.115573
C	 -2.095544	 -1.690218	 -0.649171
O	 -3.135812	 -0.694630	 -2.561359
C	 -0.655361	 -1.434775	 -0.183470
H	 -2.807519	 -1.098149	 -0.085918
H	 -2.340203	 -2.740714	 -0.496680
C	 -0.252658	 0.041456	 -0.226725
H	 -0.550761	 -1.807653	 0.831076
H	 0.030771	 -2.020516	 -0.793297
C	 1.180775	 0.282413	 0.250794
H	 -0.941862	 0.616521	 0.388210
H	 -0.362205	 0.424368	 -1.239601
C	 2.148627	 -0.814315	 -0.201312
H	 1.516199	 1.249228	 -0.115937
H	 1.192670	 0.346017	 1.338083
C	 3.580890	 -0.659131	 0.322722
H	 2.166869	 -0.852443	 -1.289387
H	 1.762857	 -1.776509	 0.128956
C	 4.324889	 0.564933	 -0.213704
H	 4.142010	 -1.551473	 0.056605
H	 3.564836	 -0.624694	 1.410140
H	 4.342616	 0.565491	 -1.300421
H	 3.866655	 1.493402	 0.110242
H	 5.353900	 0.572371	 0.132816

12 8 11 14 F
