%nprocshared=4
%mem=2GB
#HF/cc-pVTZ nosymm scf=tight opt=ModRedundant

Mol

0 1
O	 -2.440701	 -0.934798	 -0.415053
C	 -1.922978	 0.063265	 -0.045005
C	 -2.632749	 1.372204	 0.158357
O	 -0.637375	 0.157174	 0.243149
H	 -2.187724	 2.129143	 -0.474664
H	 -3.677681	 1.257276	 -0.079438
H	 -2.516788	 1.693160	 1.185542
C	 0.162530	 -1.009518	 0.097799
C	 1.587210	 -0.664190	 0.477086
H	 0.096803	 -1.356267	 -0.924704
H	 -0.233803	 -1.785900	 0.736810
C	 1.840599	 0.829075	 0.666080
H	 2.232522	 -1.045739	 -0.309507
H	 1.849738	 -1.201307	 1.383409
C	 3.291415	 1.139390	 1.018860
H	 1.570484	 1.354505	 -0.246094
H	 1.189125	 1.208627	 1.444774
H	 3.444187	 2.205032	 1.143180
H	 3.967220	 0.796986	 0.242047
H	 3.581010	 0.653983	 1.944890

12 9 8 10 F
