%nprocshared=4
%mem=2GB
#HF/cc-pVTZ nosymm scf=tight opt=ModRedundant

Mol

0 1
O	 -2.071633	 -1.227563	 -0.223463
C	 -1.652164	 -0.152425	 0.058082
C	 -0.327811	 0.006324	 0.778296
C	 -2.402515	 1.108629	 -0.298924
C	 0.188578	 -1.344535	 1.288146
H	 0.407037	 0.455628	 0.118561
H	 -0.488030	 0.673914	 1.615249
C	 1.513195	 -1.224643	 2.035973
H	 0.310238	 -2.030561	 0.453724
H	 -0.561313	 -1.779148	 1.940173
C	 2.024345	 -2.563920	 2.555805
H	 2.258649	 -0.783252	 1.380232
H	 1.391788	 -0.536809	 2.867649
H	 2.189117	 -3.262993	 1.742675
H	 1.313316	 -3.014830	 3.239536
H	 2.962716	 -2.445373	 3.084773
H	 -3.240910	 0.874416	 -0.936711
H	 -1.747554	 1.818823	 -0.790984
H	 -2.760419	 1.579708	 0.610998

5 3 2 4 F
