%nprocshared=4
%mem=2GB
#HF/cc-pVTZ nosymm scf=tight opt=ModRedundant

Mol

0 1
H	 0.789710	 -0.405961	 2.315206
C	 -0.170628	 -0.447109	 1.822490
O	 0.000000	 0.000000	 0.518769
H	 -0.533533	 -1.472542	 1.847871
H	 -0.872155	 0.178996	 2.369945
C	 -1.165153	 0.000000	 -0.236961
H	 -1.229451	 0.882440	 -0.870223
H	 -2.002557	 0.000000	 0.445289
H	 -1.229451	 -0.882440	 -0.870223

2 3 6 7 F
