%nprocshared=4
%mem=2GB
#HF/cc-pVTZ nosymm scf=tight opt=ModRedundant

Mol

0 1
O	 -0.694481	 1.313155	 -0.204815
C	 -0.862519	 0.151932	 -0.046791
C	 -2.171428	 -0.477048	 0.339095
O	 0.085519	 -0.757083	 -0.192238
H	 -2.467997	 -1.191667	 -0.417688
H	 -2.923379	 0.287970	 0.444097
H	 -2.053854	 -1.015120	 1.270901
C	 1.392036	 -0.330828	 -0.560749
C	 2.258385	 -1.494098	 -0.996800
H	 1.839418	 0.198837	 0.265762
H	 1.234888	 0.358682	 -1.376610
H	 3.220713	 -1.124392	 -1.332500
H	 2.424995	 -2.180269	 -0.177780
H	 1.794979	 -2.030264	 -1.816174

10 8 4 2 F
