%nprocshared=1
%mem=2GB
#HF/6-31G* nosymm scf=tight 

Mol

0 1
H	 -3.261111	 -0.295142	 1.469456
C	 -3.306842	 -0.277400	 0.373456
C	 -2.660244	 0.921717	 -0.272021
O	 -3.838538	 -1.161155	 -0.216482
C	 -3.494391	 2.199814	 -0.107942
H	 -1.665772	 1.038809	 0.142737
H	 -2.555271	 0.696305	 -1.332599
C	 -3.589655	 2.684696	 1.340889
H	 -3.052769	 2.979763	 -0.721077
H	 -4.494201	 2.032202	 -0.505488
C	 -4.414030	 3.965177	 1.487825
H	 -2.586247	 2.852423	 1.726750
H	 -4.024663	 1.904927	 1.963197
C	 -4.493810	 4.456145	 2.935767
H	 -3.981177	 4.736966	 0.856389
H	 -5.421263	 3.790627	 1.111793
C	 -5.378135	 5.690824	 3.144591
H	 -3.489788	 4.668220	 3.299991
H	 -4.876739	 3.648661	 3.556289
C	 -4.857465	 6.965611	 2.478678
H	 -5.470958	 5.869455	 4.212965
H	 -6.382915	 5.479284	 2.784608
H	 -3.846971	 7.193071	 2.807971
H	 -4.842132	 6.882145	 1.397118
H	 -5.485206	 7.815179	 2.730012

6 3 5 8 F
3 5 8 12 F
12 8 11 14 F
8 11 14 18 F
20 17 14 18 F
