%nprocshared=4
%mem=2GB
#HF/6-31G* nosymm scf=tight opt=ModRedundant

Mol

0 1
H	 3.109895	 -3.047881	 -2.602807
C	 2.991580	 -1.977911	 -2.743124
C	 1.692212	 -1.478496	 -2.112724
H	 3.853163	 -1.488753	 -2.298443
H	 3.012847	 -1.779964	 -3.811377
C	 1.490608	 0.027038	 -2.298563
H	 1.693596	 -1.715290	 -1.053701
H	 0.850918	 -2.011157	 -2.553391
C	 0.188966	 0.553173	 -1.693438
H	 2.324912	 0.562626	 -1.859558
H	 1.490696	 0.256922	 -3.361669
C	 0.169600	 0.576866	 -0.172154
H	 0.018964	 1.577513	 -2.021462
H	 -0.665060	 -0.016186	 -2.053504
C	 -1.181045	 0.701995	 0.511084
O	 1.176543	 0.518283	 0.467407
C	 -2.285934	 -0.139295	 -0.145128
H	 -1.449051	 1.751551	 0.493206
H	 -1.071135	 0.403303	 1.551943
C	 -3.651768	 0.085446	 0.506485
H	 -2.346596	 0.110469	 -1.202272
H	 -2.034737	 -1.195320	 -0.088721
C	 -4.759797	 -0.746382	 -0.137905
H	 -3.908762	 1.140117	 0.445781
H	 -3.588286	 -0.154158	 1.565709
H	 -4.868882	 -0.505166	 -1.191300
H	 -4.548009	 -1.809175	 -0.062213
H	 -5.715422	 -0.564821	 0.343442

16 12 15 17 F
