%nprocshared=4
%mem=2GB
#HF/cc-pVTZ nosymm scf=tight opt=ModRedundant

Mol

0 1
H	 2.596094	 2.235623	 -4.544728
C	 2.942961	 2.024375	 -3.539778
C	 1.788072	 2.036288	 -2.544080
H	 3.432339	 1.056655	 -3.555376
H	 3.690142	 2.768878	 -3.284365
C	 2.241366	 1.752762	 -1.113658
H	 1.051085	 1.299560	 -2.842446
H	 1.294896	 3.005023	 -2.578021
C	 1.107179	 1.764471	 -0.093673
H	 2.740143	 0.792253	 -1.075281
H	 2.972106	 2.500455	 -0.819113
C	 0.166485	 0.574257	 -0.177158
H	 1.516836	 1.755450	 0.913236
H	 0.527726	 2.680103	 -0.166953
C	 -1.180025	 0.697761	 0.509157
O	 0.474964	 -0.426853	 -0.739204
C	 -2.285431	 -0.137488	 -0.145671
H	 -1.447360	 1.745713	 0.496200
H	 -1.065514	 0.394096	 1.546399
C	 -3.646545	 0.082747	 0.508954
H	 -2.348635	 0.118247	 -1.199806
H	 -2.034895	 -1.192387	 -0.096473
C	 -4.757412	 -0.737227	 -0.138149
H	 -3.900211	 1.137405	 0.459735
H	 -3.580878	 -0.166775	 1.564416
H	 -4.867876	 -0.486707	 -1.187777
H	 -4.549650	 -1.800049	 -0.072540
H	 -5.709585	 -0.556397	 0.346597

16 12 15 17 F
