%nprocshared=1
%mem=2GB
#HF/6-31G* nosymm scf=tight 

Mol

0 1
O	 2.862325	 1.357334	 0.000267
C	 2.843464	 0.164689	 -0.000222
C	 1.546494	 -0.624492	 -0.000609
C	 4.124123	 -0.644674	 -0.000428
C	 0.291004	 0.242674	 0.000989
H	 1.557904	 -1.283758	 -0.867573
H	 1.558622	 -1.285963	 0.864672
C	 0.258582	 1.225202	 1.172889
H	 -0.584188	 -0.398559	 0.032440
H	 0.232072	 0.785073	 -0.937349
C	 -0.996675	 2.099217	 1.185472
H	 0.321516	 0.674835	 2.110536
H	 1.139825	 1.864053	 1.136190
C	 -1.036550	 3.084597	 2.354852
H	 -1.878223	 1.461649	 1.222863
H	 -1.060167	 2.650523	 0.248975
C	 -2.293496	 3.953929	 2.360715
H	 -0.974351	 2.534590	 3.291573
H	 -0.156599	 3.723474	 2.317686
H	 -3.190610	 3.345386	 2.431502
H	 -2.293062	 4.641215	 3.201154
H	 -2.366486	 4.543571	 1.451243
H	 4.165367	 -1.288615	 -0.874074
H	 4.976217	 0.020734	 -0.001915
H	 4.166763	 -1.286207	 0.874930

9 5 8 12 F
15 11 8 12 F
15 11 14 18 F
1 2 3 6 F
