%nprocshared=4
%mem=2GB
#HF/6-31G* nosymm scf=tight opt=ModRedundant

Mol

0 1
H	 2.591676	 2.013956	 0.335017
O	 3.341076	 1.666752	 -0.126416
C	 3.569581	 0.339145	 0.272707
C	 2.539767	 -0.640285	 -0.279495
H	 4.553106	 0.084646	 -0.100901
H	 3.608576	 0.269204	 1.359154
C	 1.115811	 -0.397273	 0.226630
H	 2.556196	 -0.582511	 -1.364741
H	 2.852081	 -1.648031	 -0.010655
C	 0.958836	 -0.701192	 1.719216
H	 0.424511	 -1.011700	 -0.343413
H	 0.838247	 0.640682	 0.042382
C	 -0.427486	 -0.393135	 2.296756
H	 1.199007	 -1.747595	 1.898673
H	 1.697472	 -0.122413	 2.269791
C	 -1.559558	 -1.272952	 1.759344
H	 -0.381043	 -0.509803	 3.377519
H	 -0.667462	 0.653632	 2.116406
C	 -2.901896	 -0.999639	 2.441155
H	 -1.295408	 -2.320724	 1.895397
H	 -1.673109	 -1.123974	 0.688263
C	 -4.035012	 -1.872059	 1.902087
H	 -2.800969	 -1.161013	 3.512258
H	 -3.162791	 0.049075	 2.314592
H	 -3.818702	 -2.927238	 2.043611
H	 -4.972020	 -1.656299	 2.406171
H	 -4.186033	 -1.706571	 0.838992

10 7 4 8 F
