%nprocshared=1
%mem=2GB
#HF/6-31G* nosymm scf=tight opt=ModRedundant

Mol

0 1
O	 2.862325	 1.357334	 0.000267
C	 2.843464	 0.164689	 -0.000222
C	 1.546494	 -0.624492	 -0.000609
C	 4.124123	 -0.644674	 -0.000428
C	 0.291004	 0.242674	 0.000989
H	 1.557904	 -1.283758	 -0.867573
H	 1.558622	 -1.285963	 0.864672
C	 0.541614	 1.638195	 -0.573012
H	 -0.084578	 0.322968	 1.016184
H	 -0.486851	 -0.256470	 -0.568173
C	 -0.710219	 2.517196	 -0.575184
H	 1.325104	 2.131727	 0.000239
H	 0.919621	 1.550266	 -1.590581
C	 -0.467586	 3.914802	 -1.147755
H	 -1.088560	 2.606369	 0.441637
H	 -1.493839	 2.025225	 -1.148683
C	 -1.722599	 4.786941	 -1.146355
H	 0.314708	 4.408024	 -0.574544
H	 -0.090797	 3.827003	 -2.164701
H	 -2.104930	 4.921978	 -0.138517
H	 -1.518788	 5.770984	 -1.557233
H	 -2.512929	 4.337433	 -1.740883
H	 4.165367	 -1.288615	 -0.874074
H	 4.976217	 0.020734	 -0.001915
H	 4.166763	 -1.286207	 0.874930

9 5 3 6 F
