%nprocshared=1
%mem=2GB
#HF/6-31G* nosymm scf=tight 

Mol

0 1
H	 5.299487	 0.881095	 0.136015
C	 4.632753	 0.552130	 -0.655042
C	 3.217450	 0.324618	 -0.125579
H	 4.640602	 1.311505	 -1.431333
H	 5.046256	 -0.359114	 -1.078658
C	 2.252072	 -0.147094	 -1.215233
H	 2.846430	 1.245496	 0.312518
H	 3.247035	 -0.414627	 0.673380
C	 0.831196	 -0.400700	 -0.711186
H	 2.217200	 0.586660	 -2.012750
H	 2.630276	 -1.069654	 -1.649842
C	 0.059721	 0.860217	 -0.350414
H	 0.252931	 -0.907854	 -1.482013
H	 0.836237	 -1.074035	 0.143081
C	 -1.181045	 0.701995	 0.511084
O	 0.400658	 1.935853	 -0.741790
C	 -2.285934	 -0.139295	 -0.145128
H	 -1.546971	 1.698890	 0.725591
H	 -0.890966	 0.242826	 1.454324
C	 -3.651768	 0.085446	 0.506485
H	 -2.346596	 0.110469	 -1.202272
H	 -2.034737	 -1.195320	 -0.088721
C	 -4.759797	 -0.746382	 -0.137905
H	 -3.908762	 1.140117	 0.445781
H	 -3.588286	 -0.154158	 1.565709
H	 -4.868882	 -0.505166	 -1.191300
H	 -4.548009	 -1.809175	 -0.062213
H	 -5.715422	 -0.564821	 0.343442

10 6 3 2 F
16 12 15 17 F
