%nprocshared=4
%mem=2GB
#HF/cc-pVTZ nosymm scf=tight opt=ModRedundant

Mol

0 1
H	 -3.436473	 1.252944	 -1.023892
O	 -3.458596	 0.315260	 -0.960865
C	 -3.176635	 -0.080824	 0.355601
C	 -1.763371	 0.265266	 0.799691
H	 -3.321825	 -1.153438	 0.379502
H	 -3.895468	 0.357385	 1.043382
C	 -0.673390	 -0.426948	 -0.013392
H	 -1.631049	 1.344913	 0.747560
H	 -1.664587	 -0.001624	 1.849167
C	 -1.224206	 -1.284177	 -1.149936
H	 -0.070759	 -1.041112	 0.646572
H	 -0.004909	 0.326991	 -0.422311
C	 -2.276100	 -0.558464	 -1.986540
H	 -0.400887	 -1.600969	 -1.782928
H	 -1.659881	 -2.192461	 -0.738763
C	 -3.581466	 -0.248555	 -1.251812
H	 -2.496543	 -1.146987	 -2.874175
H	 -1.851564	 0.376345	 -2.342240
C	 -4.398523	 -1.476299	 -0.856586
H	 -4.191778	 0.383930	 -1.889195
H	 -3.362314	 0.339096	 -0.364085
H	 -4.627779	 -2.086842	 -1.724200
H	 -5.338407	 -1.182816	 -0.403013
H	 -3.874372	 -2.100127	 -0.142646

11 7 4 3 F
