%nprocshared=4
%mem=2GB
#HF/cc-pVTZ nosymm scf=tight opt=ModRedundant

Mol

0 1
O	 -0.694481	 1.313155	 -0.204815
C	 -0.862519	 0.151932	 -0.046791
C	 -2.171428	 -0.477048	 0.339095
O	 0.085519	 -0.757083	 -0.192238
H	 -2.467997	 -1.191667	 -0.417688
H	 -2.923379	 0.287970	 0.444097
H	 -2.053854	 -1.015120	 1.270901
C	 1.445613	 -0.343722	 -0.130943
C	 1.948970	 -0.284101	 1.296284
H	 1.548911	 0.612310	 -0.619970
H	 1.983745	 -1.088650	 -0.697729
H	 3.003327	 -0.031564	 1.299263
H	 1.417750	 0.468725	 1.862359
H	 1.827194	 -1.243052	 1.785341

8 4 2 1 F
