%nprocshared=1
%mem=2GB
#HF/6-31G* nosymm scf=tight opt=ModRedundant

Mol

0 1
O	 3.225979	 0.970355	 -0.599647
C	 2.701189	 0.057885	 -0.047330
C	 1.245376	 -0.013843	 0.345420
O	 3.347903	 -1.046386	 0.304773
C	 0.479196	 1.272807	 0.046064
H	 0.819197	 -0.869775	 -0.167361
H	 1.208092	 -0.253804	 1.405007
C	 -0.973340	 1.253914	 0.534201
H	 0.505757	 1.465720	 -1.022205
H	 1.000002	 2.101852	 0.512828
C	 -1.881183	 0.248551	 -0.180064
H	 -1.386520	 2.250992	 0.400628
H	 -0.993228	 1.060575	 1.605758
C	 -3.341822	 0.344954	 0.265175
H	 -1.821367	 0.413284	 -1.254822
H	 -1.527385	 -0.765145	 -0.006225
C	 -4.257383	 -0.658607	 -0.438205
H	 -3.707905	 1.353756	 0.082045
H	 -3.401101	 0.190959	 1.341498
C	 -5.714907	 -0.553191	 0.009245
H	 -4.198587	 -0.506780	 -1.513907
H	 -3.895589	 -1.667805	 -0.252718
H	 -6.338505	 -1.276795	 -0.506633
H	 -6.117156	 0.435091	 -0.194934
H	 -5.811633	 -0.734284	 1.076073
C	 4.728119	 -1.109107	 -0.004993
H	 4.882018	 -1.033965	 -1.071845
H	 5.068212	 -2.067527	 0.355250
H	 5.265056	 -0.311663	 0.488280

6 3 2 1 F
