%nprocshared=4
%mem=2GB
#HF/6-31G* nosymm scf=tight opt=ModRedundant

Mol

0 1
H	 4.733570	 2.713882	 -1.260835
C	 3.913632	 2.497869	 -1.938745
C	 2.793217	 1.740816	 -1.226904
H	 3.554281	 3.442995	 -2.334908
H	 4.313502	 1.921325	 -2.768505
C	 1.622829	 1.413920	 -2.157036
H	 2.436096	 2.332655	 -0.390368
H	 3.191485	 0.816464	 -0.811396
C	 0.493392	 0.640080	 -1.476735
H	 1.220953	 2.331415	 -2.572178
H	 1.988039	 0.821326	 -2.992796
C	 -0.317344	 1.458773	 -0.482908
H	 -0.208765	 0.279516	 -2.226894
H	 0.875526	 -0.249241	 -0.980492
C	 -1.181045	 0.701995	 0.511084
O	 -0.294741	 2.652860	 -0.490152
C	 -2.285934	 -0.139295	 -0.145128
H	 -1.616067	 1.437488	 1.177058
H	 -0.538713	 0.053477	 1.103974
C	 -3.651768	 0.085446	 0.506485
H	 -2.346596	 0.110469	 -1.202272
H	 -2.034737	 -1.195320	 -0.088721
C	 -4.759797	 -0.746382	 -0.137905
H	 -3.908762	 1.140117	 0.445781
H	 -3.588286	 -0.154158	 1.565709
H	 -4.868882	 -0.505166	 -1.191300
H	 -4.548009	 -1.809175	 -0.062213
H	 -5.715422	 -0.564821	 0.343442

12 15 17 21 F
