%nprocshared=1
%mem=2GB
#HF/6-31G* nosymm scf=tight opt=ModRedundant

Mol

0 1
H	 2.591676	 2.013956	 0.335017
O	 3.341076	 1.666752	 -0.126416
C	 3.569581	 0.339145	 0.272707
C	 2.539767	 -0.640285	 -0.279495
H	 4.553106	 0.084646	 -0.100901
H	 3.608576	 0.269204	 1.359154
C	 1.109633	 -0.373782	 0.196487
H	 2.575977	 -0.603073	 -1.365161
H	 2.836991	 -1.645833	 0.013589
C	 0.108795	 -1.405514	 -0.331406
H	 0.807178	 0.620365	 -0.120624
H	 1.084268	 -0.376717	 1.286298
C	 -1.324712	 -1.234612	 0.184530
H	 0.105422	 -1.376812	 -1.419529
H	 0.457681	 -2.398536	 -0.055928
C	 -2.031917	 0.038867	 -0.287268
H	 -1.908422	 -2.094667	 -0.137035
H	 -1.320640	 -1.262801	 1.273119
C	 -3.491580	 0.112881	 0.165878
H	 -1.991236	 0.090353	 -1.374376
H	 -1.505629	 0.916931	 0.079238
C	 -4.198006	 1.386127	 -0.298311
H	 -4.029397	 -0.755082	 -0.209463
H	 -3.534866	 0.051797	 1.251364
H	 -4.200327	 1.460280	 -1.382156
H	 -5.230463	 1.408035	 0.036636
H	 -3.705382	 2.272608	 0.091351

8 4 3 2 F
