%nprocshared=4
%mem=2GB
#HF/cc-pVTZ nosymm scf=tight opt=ModRedundant

Mol

0 1
H	 -1.838548	 0.067684	 -1.061074
C	 -1.046105	 -0.484944	 -0.603724
C	 -1.039524	 -1.865044	 -0.599956
C	 0.000000	 0.179985	 0.000046
H	 -1.843877	 -2.400779	 -1.064195
C	 0.000002	 -2.552036	 -0.000013
N	 0.000000	 1.644631	 0.000076
C	 1.046105	 -0.484969	 0.603790
H	 0.000000	 -3.625035	 -0.000032
C	 1.039525	 -1.865069	 0.599962
O	 1.050559	 2.194174	 -0.000073
O	 -1.050559	 2.194174	 -0.000074
H	 1.838552	 0.067641	 1.061155
H	 1.843877	 -2.400822	 1.064183

2 4 7 11 F
