%nprocshared=1
%mem=2GB
#HF/6-31G* nosymm scf=tight opt=ModRedundant

Mol

0 1
H	 2.591676	 2.013956	 0.335017
O	 3.341076	 1.666752	 -0.126416
C	 3.569581	 0.339145	 0.272707
C	 4.764651	 -0.301060	 -0.424913
H	 3.747500	 0.379072	 1.339677
H	 2.676510	 -0.264826	 0.116429
C	 4.595404	 -0.449409	 -1.938919
H	 5.647966	 0.295838	 -0.213172
H	 4.930616	 -1.281594	 0.018230
C	 5.788113	 -1.144092	 -2.602002
H	 4.456412	 0.533390	 -2.380680
H	 3.689315	 -1.018312	 -2.147950
C	 5.632442	 -1.394769	 -4.106418
H	 6.687535	 -0.556726	 -2.426248
H	 5.949824	 -2.100204	 -2.108646
C	 5.589615	 -0.130658	 -4.969360
H	 6.464464	 -2.012636	 -4.437773
H	 4.732207	 -1.981877	 -4.281684
C	 5.540016	 -0.433625	 -6.468422
H	 6.466115	 0.479534	 -4.755996
H	 4.725605	 0.474102	 -4.704684
C	 5.490726	 0.826420	 -7.331858
H	 6.409443	 -1.026254	 -6.744783
H	 4.670172	 -1.051378	 -6.682050
H	 6.364315	 1.450339	 -7.165149
H	 5.458270	 0.578754	 -8.388382
H	 4.611672	 1.423325	 -7.105291

4 3 2 1 F
