%nprocshared=1
%mem=2GB
#HF/6-31G* nosymm scf=tight 

Mol

0 1
O	 1.319941	 3.775272	 1.526748
C	 0.465265	 3.892905	 2.350429
C	 -0.805298	 3.062329	 2.323063
C	 0.595173	 4.887536	 3.485765
C	 -0.881077	 2.080105	 1.157847
H	 -0.880807	 2.537494	 3.274501
H	 -1.651367	 3.748051	 2.304208
C	 -2.173491	 1.261940	 1.163825
H	 -0.023438	 1.415935	 1.196108
H	 -0.795104	 2.627812	 0.224694
C	 -2.259874	 0.272531	 0.000494
H	 -2.255019	 0.717978	 2.103775
H	 -3.029519	 1.934192	 1.126945
C	 -3.549786	 -0.549746	 -0.000374
H	 -1.405001	 -0.400444	 0.036773
H	 -2.179357	 0.815291	 -0.939679
C	 -4.809590	 0.315458	 -0.000369
H	 -3.560515	 -1.202009	 -0.871156
H	 -3.561123	 -1.202955	 0.869711
H	 -4.844746	 0.956611	 -0.876632
H	 -5.706986	 -0.295590	 -0.001609
H	 -4.845960	 0.954827	 0.877144
H	 0.549859	 4.377445	 4.443561
H	 1.534733	 5.415822	 3.402249
H	 -0.224505	 5.599678	 3.460948

9 5 8 12 F
15 11 8 12 F
1 2 3 6 F
9 5 3 6 F
