%nprocshared=4
%mem=2GB
#HF/cc-pVTZ nosymm scf=tight opt=ModRedundant

Mol

0 1
O	 -2.081319	 -0.951530	 -0.502732
N	 -1.613558	 0.006676	 0.014756
C	 -0.329345	 -0.171618	 0.743966
O	 -2.068523	 1.100482	 -0.024385
C	 0.667145	 -0.901884	 -0.147555
H	 -0.564948	 -0.738225	 1.629328
H	 0.010173	 0.818680	 0.997480
C	 2.003248	 -1.105352	 0.562089
H	 0.248577	 -1.860330	 -0.431702
H	 0.813318	 -0.328097	 -1.055376
C	 3.022089	 -1.828352	 -0.311819
H	 1.844391	 -1.670928	 1.475503
H	 2.403424	 -0.141186	 0.861506
H	 2.663270	 -2.810292	 -0.599467
H	 3.224711	 -1.270226	 -1.219099
H	 3.959966	 -1.958666	 0.214077

5 3 2 1 F
