%nprocshared=1
%mem=2GB
#HF/6-31G* nosymm scf=tight opt=ModRedundant

Mol

0 1
O	 0.624701	 1.348748	 -0.056369
C	 0.486307	 0.169203	 0.000779
C	 1.608116	 -0.841643	 0.000302
O	 -0.696876	 -0.424626	 0.071837
C	 2.990107	 -0.200498	 -0.000684
H	 1.468623	 -1.481519	 -0.865924
H	 1.469683	 -1.481289	 0.866878
H	 3.129736	 0.423364	 -0.875135
H	 3.757882	 -0.966877	 -0.001197
H	 3.130964	 0.423383	 0.873533
C	 -1.851589	 0.408422	 0.080144
C	 -3.062997	 -0.495905	 0.163783
H	 -1.860978	 1.006905	 -0.820586
H	 -1.795336	 1.080669	 0.925431
H	 -3.101914	 -1.166595	 -0.686993
H	 -3.969452	 0.100676	 0.172603
H	 -3.036043	 -1.092439	 1.068590

4 2 3 6 F
