%nprocshared=4
%mem=2GB
#HF/cc-pVTZ nosymm scf=tight opt=ModRedundant

Mol

0 1
H	 1.596926	 -1.077433	 1.070674
C	 0.718407	 -1.186641	 0.451812
O	 0.000000	 0.000000	 0.518769
H	 1.032561	 -1.405417	 -0.566667
H	 0.133847	 -2.027692	 0.818933
C	 -1.165153	 0.000000	 -0.236961
H	 -1.229451	 0.882440	 -0.870223
H	 -2.002557	 0.000000	 0.445289
H	 -1.229451	 -0.882440	 -0.870223

2 3 6 7 F
