%nprocshared=4
%mem=2GB
#HF/cc-pVTZ nosymm scf=tight opt=ModRedundant

Mol

0 1
H	 3.510705	 4.540673	 2.422615
C	 3.061369	 3.695579	 1.936724
C	 1.805076	 3.813136	 1.369671
C	 3.739870	 2.492938	 1.879490
H	 1.279025	 4.746926	 1.414481
C	 1.228333	 2.726748	 0.745474
H	 4.714085	 2.402803	 2.319550
C	 3.163700	 1.404215	 1.254824
H	 0.256559	 2.800204	 0.301268
C	 1.905305	 1.518436	 0.685695
H	 3.686470	 0.471413	 1.208751
C	 1.238974	 0.374429	 0.000004
O	 1.968286	 -0.725612	 -0.000027
O	 0.164508	 0.438496	 -0.496580
C	 3.373556	 -0.568203	 0.000011
H	 3.695416	 -0.031588	 -0.879663
H	 3.782700	 -1.565294	 -0.000152
H	 3.695405	 -0.031851	 0.879862

10 12 13 15 F
