%nprocshared=4
%mem=2GB
#HF/6-31G* nosymm scf=tight opt=ModRedundant

Mol

0 1
H	 -3.420663	 1.227371	 -1.044276
O	 -3.452007	 0.283848	 -0.965577
C	 -3.181085	 -0.079926	 0.364119
C	 -1.765924	 0.277073	 0.805136
H	 -3.327791	 -1.152017	 0.410903
H	 -3.905698	 0.375695	 1.036898
C	 -0.685430	 -0.575434	 0.138592
H	 -1.584101	 1.331370	 0.594515
H	 -1.707308	 0.169961	 1.886946
C	 0.731889	 -0.194035	 0.570934
H	 -0.776078	 -0.486801	 -0.939664
H	 -0.864959	 -1.623015	 0.374681
C	 1.807601	 -1.055595	 -0.095883
H	 0.901273	 0.855280	 0.341445
H	 0.818050	 -0.287699	 1.652788
C	 3.239259	 -0.770691	 0.372455
H	 1.751849	 -0.928331	 -1.175879
H	 1.583637	 -2.102687	 0.097135
C	 3.765212	 0.617270	 0.001856
H	 3.898345	 -1.519518	 -0.060158
H	 3.297798	 -0.902903	 1.451017
H	 3.707085	 0.782746	 -1.070701
H	 4.804537	 0.726904	 0.296171
H	 3.204675	 1.407961	 0.489472

7 4 3 2 F
