%nprocshared=1
%mem=2GB
#HF/6-31G* nosymm scf=tight 

Mol

0 1
H	 -1.836216	 1.387520	 -0.000064
C	 -1.301823	 0.443321	 -0.000031
O	 -0.003969	 0.658512	 0.000451
O	 -1.829879	 -0.616434	 -0.000857
C	 0.438934	 1.997219	 0.221555
C	 1.951647	 1.988035	 0.177569
H	 0.066844	 2.333747	 1.179478
H	 0.018363	 2.634916	 -0.543793
H	 2.355044	 1.338107	 0.945617
H	 2.330700	 2.991224	 0.342382
H	 2.306493	 1.640748	 -0.785947

7 5 3 2 F
