%nprocshared=4
%mem=2GB
#HF/cc-pVTZ nosymm scf=tight opt=ModRedundant

Mol

0 1
O	 1.847685	 1.294399	 -0.000190
C	 1.704209	 0.119472	 -0.000093
C	 0.380337	 -0.600947	 -0.000234
O	 2.715427	 -0.733672	 0.000025
C	 -0.824290	 0.329213	 -0.000115
H	 0.371455	 -1.255476	 -0.865660
H	 0.371410	 -1.255787	 0.864952
C	 -1.530688	 0.364073	 1.351848
H	 -1.518938	 0.014313	 -0.770554
H	 -0.504413	 1.328106	 -0.274308
C	 -2.741632	 1.292347	 1.371644
H	 -1.846699	 -0.641093	 1.622086
H	 -0.827729	 0.677533	 2.120503
C	 -3.447968	 1.326853	 2.722685
H	 -3.444852	 0.979608	 0.604941
H	 -2.426895	 2.296927	 1.103468
H	 -3.805390	 0.341547	 3.003141
H	 -4.301786	 1.994165	 2.702100
H	 -2.779504	 1.669660	 3.505547
C	 4.020999	 -0.192556	 0.000019
H	 4.182809	 0.412891	 -0.879449
H	 4.692590	 -1.035653	 0.000152
H	 4.182726	 0.413087	 0.879368

9 5 3 6 F
