%nprocshared=1
%mem=2GB
#HF/6-31G* nosymm scf=tight 

Mol

0 1
O	 0.141542	 -0.084052	 -0.639915
C	 1.122059	 0.121804	 -0.000188
C	 1.347571	 1.309149	 0.903831
O	 2.172624	 -0.688929	 0.000216
C	 0.168145	 2.276087	 0.940238
H	 1.572026	 0.924512	 1.895006
H	 2.253653	 1.805830	 0.567561
C	 0.422818	 3.469264	 1.862646
H	 -0.721403	 1.744318	 1.263394
H	 -0.039116	 2.626548	 -0.066103
C	 -0.753407	 4.443833	 1.904073
H	 0.630724	 3.112495	 2.869407
H	 1.316606	 3.996968	 1.535932
H	 -1.655166	 3.954141	 2.260004
H	 -0.547343	 5.279891	 2.564997
H	 -0.963978	 4.845394	 0.917134
C	 3.452279	 -0.082609	 0.000533
H	 3.583069	 0.529321	 -0.880332
H	 4.163299	 -0.894027	 0.001117
H	 3.582335	 0.529955	 0.881077

9 5 8 12 F
1 2 3 6 F
9 5 3 6 F
