%nprocshared=4
%mem=2GB
#HF/cc-pVTZ nosymm scf=tight opt=ModRedundant

Mol

0 1
H	 4.629452	 -2.190836	 0.241155
C	 4.090206	 -1.779621	 -0.604412
C	 2.637251	 -1.489794	 -0.243513
H	 4.601358	 -0.874678	 -0.914279
H	 4.158235	 -2.493472	 -1.419021
C	 1.842431	 -0.918527	 -1.415641
H	 2.607067	 -0.793926	 0.587027
H	 2.162487	 -2.406741	 0.098000
C	 0.382503	 -0.624325	 -1.085575
H	 2.315143	 -0.008929	 -1.764933
H	 1.869549	 -1.625513	 -2.239788
C	 0.166485	 0.574257	 -0.177158
H	 -0.166768	 -0.413235	 -1.999637
H	 -0.099703	 -1.493014	 -0.646969
C	 -1.180025	 0.697761	 0.509157
O	 1.008265	 1.399150	 -0.021491
C	 -2.285431	 -0.137488	 -0.145671
H	 -1.447360	 1.745713	 0.496200
H	 -1.065514	 0.394096	 1.546399
C	 -3.646545	 0.082747	 0.508954
H	 -2.348635	 0.118247	 -1.199806
H	 -2.034895	 -1.192387	 -0.096473
C	 -4.757412	 -0.737227	 -0.138149
H	 -3.900211	 1.137405	 0.459735
H	 -3.580878	 -0.166775	 1.564416
H	 -4.867876	 -0.486707	 -1.187777
H	 -4.549650	 -1.800049	 -0.072540
H	 -5.709585	 -0.556397	 0.346597

16 12 15 17 F
