%nprocshared=1
%mem=2GB
#HF/6-31G* nosymm scf=tight 

Mol

0 1
H	 -1.265187	 -0.592460	 -0.758169
N	 -0.626943	 -0.667432	 -0.000092
C	 -0.916094	 -1.622917	 1.044972
C	 0.469286	 0.129090	 0.000148
H	 -1.862479	 -1.398413	 1.525553
H	 -0.128957	 -1.567670	 1.779201
H	 -0.957766	 -2.631997	 0.648675
C	 1.788933	 -0.616240	 -0.000037
O	 0.411098	 1.327768	 -0.000049
H	 1.872803	 -1.245775	 -0.880381
H	 2.595421	 0.101576	 0.003713
H	 1.870096	 -1.252171	 0.875943

4 2 3 5 F
