%nprocshared=1
%mem=2GB
#HF/6-31G* nosymm scf=tight 

Mol

0 1
H	 2.591676	 2.013956	 0.335017
O	 3.341076	 1.666752	 -0.126416
C	 3.569581	 0.339145	 0.272707
C	 3.606294	 0.164521	 1.786935
H	 2.752842	 -0.237576	 -0.142026
H	 4.489998	 -0.039013	 -0.170700
C	 4.758457	 0.904422	 2.470992
H	 2.659113	 0.505824	 2.196480
H	 3.680611	 -0.899821	 2.003778
C	 4.799814	 0.665459	 3.982946
H	 4.666014	 1.968908	 2.274300
H	 5.704372	 0.585447	 2.032995
C	 5.985728	 1.315147	 4.705341
H	 3.870778	 1.018700	 4.426749
H	 4.832665	 -0.407008	 4.163041
C	 5.976316	 2.846275	 4.711451
H	 5.992208	 0.964441	 5.735283
H	 6.914814	 0.961872	 4.260558
C	 7.119768	 3.446153	 5.532487
H	 5.025918	 3.197852	 5.110511
H	 6.038374	 3.225007	 3.694094
C	 7.116461	 4.974435	 5.534966
H	 7.056332	 3.083837	 6.556299
H	 8.069902	 3.088264	 5.141277
H	 6.191586	 5.363810	 5.951160
H	 7.936903	 5.369007	 6.126425
H	 7.215920	 5.368771	 4.527509

14 10 7 4 F
14 10 13 16 F
10 7 4 8 F
8 4 3 2 F
10 13 16 20 F
20 16 19 22 F
