%nprocshared=1
%mem=2GB
#HF/6-31G* nosymm scf=tight opt=ModRedundant

Mol

0 1
H	 2.794912	 -3.477131	 2.346744
O	 3.557123	 -3.370370	 1.796554
C	 3.229763	 -3.686745	 0.467345
C	 2.363113	 -2.628625	 -0.206470
H	 4.173553	 -3.773391	 -0.055557
H	 2.741595	 -4.659300	 0.416268
C	 0.981021	 -2.459096	 0.429101
H	 2.894702	 -1.680895	 -0.182220
H	 2.248348	 -2.901309	 -1.254249
C	 0.115918	 -1.429151	 -0.302766
H	 1.099477	 -2.161359	 1.467217
H	 0.464977	 -3.419306	 0.435055
C	 -1.309753	 -1.282496	 0.241564
H	 0.612580	 -0.460919	 -0.276276
H	 0.056500	 -1.710205	 -1.352136
C	 -2.037799	 -0.007733	 -0.193645
H	 -1.890610	 -2.142323	 -0.085726
H	 -1.285946	 -1.330893	 1.329189
C	 -3.489788	 0.042957	 0.286558
H	 -2.017067	 0.064384	 -1.280144
H	 -1.513726	 0.868678	 0.179924
C	 -4.216917	 1.317354	 -0.141063
H	 -4.025645	 -0.823308	 -0.095450
H	 -3.513059	 -0.038752	 1.371301
H	 -4.239342	 1.411634	 -1.223113
H	 -5.243387	 1.322503	 0.212445
H	 -3.726170	 2.201406	 0.256408

14 10 13 16 F
