%nprocshared=1
%mem=2GB
#HF/6-31G* nosymm scf=tight 

Mol

0 1
H	 4.355847	 3.541382	 -1.346538
C	 4.242508	 2.492874	 -1.089036
C	 2.909121	 2.237367	 -0.387630
H	 4.316203	 1.917068	 -2.006837
H	 5.080593	 2.215313	 -0.455496
C	 2.719933	 0.768037	 -0.004104
H	 2.097290	 2.549244	 -1.036679
H	 2.850391	 2.853410	 0.508324
C	 1.401531	 0.484633	 0.716149
H	 2.775499	 0.150008	 -0.893259
H	 3.536901	 0.462459	 0.645686
C	 0.169600	 0.576866	 -0.172154
H	 1.414999	 -0.525204	 1.123356
H	 1.276283	 1.144717	 1.571590
C	 -1.181045	 0.701995	 0.511084
O	 0.252185	 0.534511	 -1.362865
C	 -2.285934	 -0.139295	 -0.145128
H	 -1.449051	 1.751551	 0.493206
H	 -1.071135	 0.403303	 1.551943
C	 -3.651768	 0.085446	 0.506485
H	 -2.346596	 0.110469	 -1.202272
H	 -2.034737	 -1.195320	 -0.088721
C	 -4.759797	 -0.746382	 -0.137905
H	 -3.908762	 1.140117	 0.445781
H	 -3.588286	 -0.154158	 1.565709
H	 -4.868882	 -0.505166	 -1.191300
H	 -4.548009	 -1.809175	 -0.062213
H	 -5.715422	 -0.564821	 0.343442

10 6 3 2 F
12 15 17 21 F
