%nprocshared=1
%mem=2GB
#HF/6-31G* nosymm scf=tight 

Mol

0 1
O	 -0.930882	 2.136812	 1.774024
C	 -0.869704	 1.985170	 0.591782
C	 0.367765	 1.386022	 -0.053198
C	 -2.023678	 2.348122	 -0.315954
C	 0.379448	 -0.143569	 0.099626
H	 1.234562	 1.806095	 0.445307
H	 0.418933	 1.654561	 -1.104528
C	 1.631333	 -0.777471	 -0.511575
H	 0.309354	 -0.378398	 1.155717
H	 -0.504466	 -0.566045	 -0.375722
C	 2.915987	 -0.544314	 0.291766
H	 1.766672	 -0.399098	 -1.523130
H	 1.471257	 -1.849544	 -0.605828
C	 3.373361	 0.914346	 0.347591
H	 3.708709	 -1.142521	 -0.150311
H	 2.780642	 -0.921148	 1.303579
H	 3.506512	 1.320010	 -0.651625
H	 4.322697	 0.999599	 0.867103
H	 2.660624	 1.545032	 0.868198
H	 -1.735532	 3.174481	 -0.960442
H	 -2.882647	 2.635778	 0.274141
H	 -2.282077	 1.513757	 -0.961608

6 3 2 1 F
6 3 5 8 F
12 8 11 15 F
