%nprocshared=4
%mem=2GB
#HF/6-31G* nosymm scf=tight opt=ModRedundant

Mol

0 1
H	 2.591676	 2.013956	 0.335017
O	 3.341076	 1.666752	 -0.126416
C	 3.569581	 0.339145	 0.272707
C	 2.539767	 -0.640285	 -0.279495
H	 4.553106	 0.084646	 -0.100901
H	 3.608576	 0.269204	 1.359154
C	 1.970669	 -1.601001	 0.767415
H	 1.730895	 -0.071929	 -0.731228
H	 3.009882	 -1.212368	 -1.077668
C	 0.980918	 -2.606094	 0.171596
H	 1.479450	 -1.027616	 1.548632
H	 2.787795	 -2.143537	 1.243125
C	 0.445447	 -3.646816	 1.161802
H	 0.145214	 -2.066546	 -0.270371
H	 1.470061	 -3.129681	 -0.647121
C	 -0.439289	 -3.080849	 2.275985
H	 -0.128093	 -4.384907	 0.604945
H	 1.281927	 -4.185836	 1.604063
C	 -1.034252	 -4.167144	 3.174549
H	 -1.247176	 -2.500243	 1.832899
H	 0.130748	 -2.389287	 2.891697
C	 -1.912657	 -3.604497	 4.291463
H	 -1.619002	 -4.855469	 2.568113
H	 -0.228752	 -4.754488	 3.610532
H	 -2.746907	 -3.038466	 3.886668
H	 -2.320791	 -4.398486	 4.909237
H	 -1.346996	 -2.939990	 4.938627

8 4 3 2 F
