%nprocshared=4
%mem=2GB
#HF/cc-pVTZ nosymm scf=tight opt=ModRedundant

Mol

0 1
H	 3.273419	 0.176595	 -0.102789
N	 2.433987	 -0.362316	 -0.080024
C	 1.263552	 0.494993	 0.021953
H	 2.497638	 -0.973615	 0.707122
C	 -0.016533	 -0.325589	 -0.026925
H	 1.280915	 1.180773	 -0.818522
H	 1.263064	 1.106893	 0.925038
C	 -1.280353	 0.525521	 0.047747
H	 -0.016686	 -0.912532	 -0.939714
H	 -0.014099	 -1.037598	 0.796369
C	 -1.837552	 0.888017	 -1.324885
H	 -1.067174	 1.436760	 0.600163
H	 -2.041123	 -0.003335	 0.615563
H	 -1.112111	 1.447622	 -1.905665
H	 -2.731468	 1.494970	 -1.238440
H	 -2.095318	 -0.001712	 -1.889792

12 8 5 9 F
