%nprocshared=4
%mem=2GB
#HF/cc-pVTZ nosymm scf=tight opt=ModRedundant

Mol

0 1
H	 -2.698799	 -0.000846	 0.036018
C	 -1.694291	 -0.000483	 0.434279
O	 -0.828718	 -0.000608	 -0.655022
H	 -1.576855	 0.881100	 1.056504
H	 -1.576401	 -0.881658	 1.057001
C	 -0.406182	 -1.232427	 -1.186024
C	 0.426119	 -2.041595	 -0.197695
C	 -1.556445	 -2.042390	 -1.773479
H	 0.242584	 -0.940478	 -2.002411
H	 1.209257	 -1.426342	 0.228001
H	 0.889811	 -2.878652	 -0.706686
H	 -0.173506	 -2.443039	 0.610931
H	 -2.148160	 -1.427724	 -2.440640
H	 -1.164844	 -2.879556	 -2.339673
H	 -2.208721	 -2.443752	 -1.006677

6 3 2 1 F
