%nprocshared=1
%mem=2GB
#HF/6-31G* nosymm scf=tight 

Mol

0 1
H	 -2.172150	 0.880146	 0.502514
C	 -2.018062	 -0.000025	 -0.114509
O	 -0.774054	 0.001095	 -0.743181
H	 -2.760490	 0.003458	 -0.901350
H	 -2.173624	 -0.884374	 0.496163
C	 -0.620631	 0.649419	 -1.993248
C	 0.852366	 0.433720	 -2.333492
C	 -1.504405	 0.001472	 -3.063901
C	 -0.916395	 2.148256	 -1.878673
H	 1.071214	 -0.626680	 -2.389065
H	 1.480660	 0.867110	 -1.563561
H	 1.104761	 0.890410	 -3.285013
H	 -1.339779	 -1.070600	 -3.088190
H	 -1.266760	 0.405514	 -4.042613
H	 -2.559467	 0.180695	 -2.887045
H	 -0.338450	 2.584379	 -1.070695
H	 -0.650754	 2.655350	 -2.800531
H	 -1.966636	 2.345024	 -1.691835

2 3 6 7 F
