%nprocshared=4
%mem=2GB
#HF/cc-pVTZ nosymm scf=tight opt=ModRedundant

Mol

0 1
H	 -0.430136	 2.862367	 -1.140039
C	 0.322319	 2.332958	 -0.539725
C	 0.062554	 0.862911	 -0.350953
O	 1.251605	 2.919581	 -0.104460
C	 -1.339253	 0.577611	 0.196911
H	 0.831321	 0.457080	 0.293867
H	 0.165458	 0.399143	 -1.329423
C	 -1.813142	 -0.849710	 -0.061612
H	 -2.032833	 1.276441	 -0.256032
H	 -1.357249	 0.782269	 1.263793
H	 -1.839268	 -1.063526	 -1.124230
H	 -2.810118	 -1.001930	 0.334000
H	 -1.159274	 -1.579980	 0.402282

6 3 5 9 F
