%nprocshared=4
%mem=2GB
#HF/cc-pVTZ nosymm scf=tight opt=ModRedundant

Mol

0 1
H	 -3.498985	 1.253143	 -1.010443
O	 -3.458596	 0.315260	 -0.960865
C	 -3.176635	 -0.080824	 0.355601
C	 -1.763371	 0.265266	 0.799691
H	 -3.321825	 -1.153438	 0.379502
H	 -3.895468	 0.357385	 1.043382
C	 -0.680161	 -0.561347	 0.112895
H	 -1.586175	 1.324682	 0.620519
H	 -1.704502	 0.126249	 1.876537
C	 -0.708212	 -2.035575	 0.507654
H	 0.291861	 -0.140701	 0.345583
H	 -0.799322	 -0.474670	 -0.964507
C	 -2.108161	 -2.642812	 0.440931
H	 -0.033727	 -2.586605	 -0.140672
H	 -0.319054	 -2.146463	 1.517662
C	 -3.099116	 -2.090316	 1.466896
H	 -2.036754	 -3.721727	 0.557949
H	 -2.512434	 -2.473382	 -0.553291
C	 -2.765681	 -2.422198	 2.919417
H	 -4.084630	 -2.484404	 1.238352
H	 -3.170825	 -1.011929	 1.351315
H	 -2.681647	 -3.494626	 3.064037
H	 -3.541668	 -2.060233	 3.584298
H	 -1.832097	 -1.972042	 3.234674

7 4 3 2 F
