%nprocshared=1
%mem=2GB
#HF/6-31G* nosymm scf=tight 

Mol

0 1
O	 -1.309579	 0.572776	 2.620489
C	 -0.570638	 1.247219	 1.969699
C	 0.695672	 0.660036	 1.371383
C	 -0.869630	 2.701465	 1.681344
C	 0.379448	 -0.143569	 0.099626
H	 1.136544	 0.003750	 2.113828
H	 1.411715	 1.445228	 1.146034
C	 1.631333	 -0.777471	 -0.511575
H	 -0.349139	 -0.905247	 0.353382
H	 -0.089168	 0.506584	 -0.637562
C	 2.915987	 -0.544314	 0.291766
H	 1.766672	 -0.399098	 -1.523130
H	 1.471257	 -1.849544	 -0.605828
C	 3.373361	 0.914346	 0.347591
H	 3.708709	 -1.142521	 -0.150311
H	 2.780642	 -0.921148	 1.303579
H	 3.506512	 1.320010	 -0.651625
H	 4.322697	 0.999599	 0.867103
H	 2.660624	 1.545032	 0.868198
H	 -0.129004	 3.330229	 2.168575
H	 -1.854174	 2.956770	 2.047783
H	 -0.808833	 2.902473	 0.615650

6 3 2 1 F
6 3 5 8 F
12 8 11 15 F
