%nprocshared=1
%mem=2GB
#HF/6-31G* nosymm scf=tight opt=ModRedundant

Mol

0 1
H	 2.609894	 -2.548674	 2.392036
C	 2.582373	 -1.996192	 1.458357
C	 1.296612	 -1.178964	 1.340379
H	 3.458979	 -1.355161	 1.428896
H	 2.670746	 -2.713957	 0.647648
C	 1.217350	 -0.386724	 0.039429
H	 1.214912	 -0.486496	 2.172367
H	 0.438758	 -1.846077	 1.406998
N	 0.000003	 0.397874	 -0.023260
H	 2.059483	 0.297963	 -0.015159
H	 1.317793	 -1.068809	 -0.811481
C	 -1.217365	 -0.386708	 0.039277
H	 -0.000031	 1.072115	 0.718656
C	 -2.452633	 0.504241	 -0.042481
H	 -1.215291	 -1.074557	 -0.802042
H	 -1.269739	 -1.003477	 0.942735
C	 -3.758029	 -0.289423	 -0.010781
H	 -2.394220	 1.093569	 -0.952170
H	 -2.440793	 1.210787	 0.785871
H	 -3.816659	 -0.981993	 -0.845726
H	 -4.617837	 0.370165	 -0.069296
H	 -3.847478	 -0.867502	 0.904682

10 6 9 12 F
