%nprocshared=4
%mem=2GB
#HF/cc-pVTZ nosymm scf=tight opt=ModRedundant

Mol

0 1
O	 0.118062	 1.193714	 -0.382436
C	 0.029490	 0.077183	 0.000078
C	 -1.232113	 -0.748027	 0.000015
O	 1.051469	 -0.605569	 0.488587
C	 -2.501422	 0.088592	 -0.000052
H	 -1.188777	 -1.400384	 -0.865133
H	 -1.188857	 -1.400312	 0.865225
H	 -2.548170	 0.725504	 -0.873205
H	 -3.371613	 -0.556398	 -0.000040
H	 -2.548215	 0.725571	 0.873047
C	 2.301849	 0.050779	 0.546880
H	 2.624863	 0.344039	 -0.440994
H	 2.992639	 -0.661323	 0.968241
H	 2.242705	 0.928467	 1.173308

4 2 3 6 F
