%nprocshared=4
%mem=2GB
#HF/cc-pVTZ nosymm scf=tight opt=ModRedundant

Mol

0 1
H	 1.428950	 -0.398733	 -3.027909
C	 1.428732	 -0.094460	 -1.986658
C	 0.081159	 -0.403421	 -1.348619
H	 1.631498	 0.968324	 -1.938739
H	 2.243680	 -0.611168	 -1.495124
N	 0.000297	 0.000045	 0.046090
H	 -0.680756	 0.127545	 -1.902403
H	 -0.148463	 -1.466604	 -1.461963
C	 -1.359159	 0.315706	 0.454404
C	 0.639923	 -0.954024	 0.937805
C	 -2.416729	 -0.286720	 -0.460525
H	 -1.478729	 1.390261	 0.442008
H	 -1.539692	 0.003361	 1.486761
C	 1.170058	 -0.319513	 2.216395
H	 1.473829	 -1.403198	 0.416362
H	 -0.039616	 -1.774524	 1.184623
H	 -2.285276	 0.073129	 -1.473515
H	 -2.371743	 -1.368476	 -0.483209
H	 -3.408658	 -0.007405	 -0.121593
H	 1.896519	 0.448355	 1.980721
H	 0.383529	 0.136007	 2.805165
H	 1.650065	 -1.069569	 2.835928

3 6 9 11 F
