%nprocshared=1
%mem=2GB
#HF/6-31G* nosymm scf=tight 

Mol

0 1
O	 -2.042549	 -1.228399	 -0.269030
C	 -1.653912	 -0.146171	 0.050137
C	 -0.332303	 0.024011	 0.778412
C	 -2.438579	 1.106236	 -0.272369
C	 0.845713	 -0.001731	 -0.208243
H	 -0.323783	 0.953829	 1.340327
H	 -0.235459	 -0.796807	 1.480410
C	 0.766670	 -1.172327	 -1.189307
H	 1.784249	 -0.056818	 0.340573
H	 0.859704	 0.936258	 -0.755164
C	 1.932149	 -1.195250	 -2.177406
H	 0.743685	 -2.107964	 -0.634799
H	 -0.171183	 -1.117307	 -1.737005
H	 2.883524	 -1.284126	 -1.660647
H	 1.961429	 -0.285314	 -2.769522
H	 1.848327	 -2.033290	 -2.862015
H	 -3.277823	 0.863061	 -0.908988
H	 -1.806773	 1.843019	 -0.759671
H	 -2.802853	 1.554979	 0.648059

11 8 5 9 F
5 3 2 4 F
