%nprocshared=1
%mem=2GB
#HF/6-31G* nosymm scf=tight 

Mol

0 1
O	 2.862325	 1.357334	 0.000267
C	 2.843464	 0.164689	 -0.000222
C	 1.546494	 -0.624492	 -0.000609
C	 4.124123	 -0.644674	 -0.000428
C	 0.291004	 0.242674	 0.000989
H	 1.557904	 -1.283758	 -0.867573
H	 1.558622	 -1.285963	 0.864672
C	 -0.641384	 -0.073460	 -1.169683
H	 0.580802	 1.288238	 -0.029717
H	 -0.235511	 0.104642	 0.940072
C	 -1.903217	 0.791076	 -1.179062
H	 -0.106000	 0.063648	 -2.108092
H	 -0.926804	 -1.123846	 -1.133743
C	 -2.840907	 0.480900	 -2.347198
H	 -1.619106	 1.841294	 -1.215693
H	 -2.439679	 0.654159	 -0.241801
C	 -4.098945	 1.348665	 -2.349860
H	 -2.306117	 0.618567	 -3.284679
H	 -3.126807	 -0.568288	 -2.310788
H	 -3.847549	 2.403205	 -2.419825
H	 -4.743011	 1.105935	 -3.189480
H	 -4.674670	 1.207091	 -1.439562
H	 4.165367	 -1.288615	 -0.874074
H	 4.976217	 0.020734	 -0.001915
H	 4.166763	 -1.286207	 0.874930

9 5 8 12 F
15 11 8 12 F
15 11 14 18 F
1 2 3 6 F
