%nprocshared=4
%mem=2GB
#HF/cc-pVTZ nosymm scf=tight opt=ModRedundant

Mol

0 1
H	 2.003000	 0.495000	 -0.000000
C	 1.165000	 -0.189000	 0.000000
O	 0.000000	 0.571000	 0.000000
H	 1.229000	 -0.823000	 -0.883000
H	 1.229000	 -0.823000	 0.883000
C	 -1.165000	 -0.189000	 0.000000
H	 -1.229000	 -0.823000	 -0.883000
H	 -2.003000	 0.495000	 -0.000000
H	 -1.229000	 -0.823000	 0.883000

