%nprocshared=4
%mem=2GB
#HF/cc-pVTZ nosymm scf=tight opt=ModRedundant

Mol

0 1
H	 -3.436473	 1.252944	 -1.023892
O	 -3.458596	 0.315260	 -0.960865
C	 -3.176635	 -0.080824	 0.355601
C	 -1.763371	 0.265266	 0.799691
H	 -3.321825	 -1.153438	 0.379502
H	 -3.895468	 0.357385	 1.043382
C	 -1.582025	 0.296488	 2.314439
H	 -1.069912	 -0.450798	 0.361248
H	 -1.505025	 1.233899	 0.378508
C	 -0.151243	 0.612643	 2.742083
H	 -1.883561	 -0.658536	 2.730274
H	 -2.256153	 1.038431	 2.735840
C	 0.022348	 0.647339	 4.259222
H	 0.516936	 -0.125621	 2.309193
H	 0.145791	 1.573539	 2.326987
C	 1.421107	 1.039446	 4.738360
H	 -0.237454	 -0.324764	 4.671980
H	 -0.693178	 1.352080	 4.673932
C	 2.518012	 0.033710	 4.397129
H	 1.390912	 1.167624	 5.816059
H	 1.682124	 2.010619	 4.325912
H	 2.281205	 -0.949165	 4.792040
H	 3.466500	 0.339973	 4.823528
H	 2.659711	 -0.065165	 3.327666

7 4 3 2 F
