%nprocshared=1
%mem=2GB
#HF/6-31G* nosymm scf=tight 

Mol

0 1
H	 -2.659357	 0.839368	 3.609819
O	 -1.953379	 0.276264	 3.326246
C	 -1.504815	 0.682960	 2.058973
C	 -0.375076	 -0.239736	 1.636992
H	 -2.315176	 0.636642	 1.332697
H	 -1.152929	 1.713290	 2.089562
C	 0.198102	 0.111031	 0.262842
H	 -0.748745	 -1.260079	 1.637488
H	 0.404893	 -0.192635	 2.391914
C	 1.331804	 -0.827780	 -0.158768
H	 -0.599900	 0.082527	 -0.475096
H	 0.569154	 1.135096	 0.274286
C	 2.723619	 -0.410569	 0.329459
H	 1.342964	 -0.912588	 -1.244120
H	 1.116806	 -1.824343	 0.220779
C	 3.243875	 0.895854	 -0.272975
H	 3.424222	 -1.207124	 0.091250
H	 2.714788	 -0.329854	 1.414619
H	 3.251977	 0.848779	 -1.358681
H	 2.637085	 1.747371	 0.016682
H	 4.259473	 1.094070	 0.055697

2 3 4 8 F
8 4 7 10 F
16 13 10 14 F
1 2 3 5 F
