%nprocshared=1
%mem=2GB
#HF/6-31G* nosymm scf=tight 

Mol

0 1
H	 3.729471	 -0.928294	 -0.070608
O	 2.826016	 -1.159218	 0.122261
C	 2.077727	 -0.067559	 -0.035091
C	 0.624473	 -0.343591	 0.253101
O	 2.542965	 0.974826	 -0.363729
C	 -0.265902	 0.883932	 0.072916
H	 0.324016	 -1.163849	 -0.390541
H	 0.565024	 -0.726111	 1.268924
C	 -1.728698	 0.646073	 0.462102
H	 -0.209144	 1.219470	 -0.958188
H	 0.135059	 1.692851	 0.673903
C	 -2.687204	 0.450430	 -0.716010
H	 -2.065763	 1.500380	 1.044604
H	 -1.792807	 -0.215143	 1.125694
C	 -4.144282	 0.321798	 -0.272326
H	 -2.590943	 1.291687	 -1.399431
H	 -2.411668	 -0.436245	 -1.281050
H	 -4.803549	 0.182446	 -1.123362
H	 -4.472176	 1.210826	 0.258656
H	 -4.278033	 -0.527245	 0.392108

16 12 9 6 F
7 4 6 10 F
5 3 4 7 F
1 2 3 5 F
