%nprocshared=1
%mem=2GB
#HF/6-31G* nosymm scf=tight 

Mol

0 1
O	 3.225979	 0.970355	 -0.599647
C	 2.701189	 0.057885	 -0.047330
C	 1.245376	 -0.013843	 0.345420
O	 3.347903	 -1.046386	 0.304773
C	 0.301476	 -0.051142	 -0.854488
H	 1.129818	 -0.885432	 0.981165
H	 1.038998	 0.845102	 0.978916
C	 -1.182542	 -0.018154	 -0.473570
H	 0.509530	 -0.936991	 -1.447028
H	 0.522719	 0.795871	 -1.494834
C	 -1.683307	 -1.254307	 0.278938
H	 -1.762396	 0.090913	 -1.387133
H	 -1.384828	 0.872334	 0.119829
C	 -3.190770	 -1.222466	 0.538826
H	 -1.436128	 -2.146530	 -0.294350
H	 -1.164986	 -1.349228	 1.230414
C	 -3.701567	 -2.450344	 1.294824
H	 -3.717812	 -1.140944	 -0.410286
H	 -3.440066	 -0.325001	 1.102837
C	 -5.208453	 -2.412566	 1.546950
H	 -3.452397	 -3.348128	 0.733094
H	 -3.179025	 -2.531062	 2.245726
H	 -5.540055	 -3.295699	 2.084280
H	 -5.761185	 -2.366930	 0.612819
H	 -5.485673	 -1.543220	 2.136578
C	 4.728119	 -1.109107	 -0.004993
H	 4.882018	 -1.033965	 -1.071845
H	 5.068212	 -2.067527	 0.355250
H	 5.265056	 -0.311663	 0.488280

21 17 14 11 F
17 14 11 15 F
15 11 8 5 F
6 3 5 9 F
11 8 5 9 F
2 4 26 27 F
1 2 4 26 F
