%nprocshared=1
%mem=2GB
#HF/6-31G* nosymm scf=tight 

Mol

0 1
H	 -2.172150	 0.880146	 0.502514
C	 -2.018062	 -0.000025	 -0.114509
O	 -0.774054	 0.001095	 -0.743181
H	 -2.760490	 0.003458	 -0.901350
H	 -2.173624	 -0.884374	 0.496163
C	 0.115306	 -1.082565	 -0.540072
C	 1.333206	 -0.713210	 -1.384055
C	 0.516957	 -1.198975	 0.933805
C	 -0.490303	 -2.396638	 -1.043625
H	 1.748464	 0.230007	 -1.047404
H	 1.047172	 -0.602941	 -2.423959
H	 2.102548	 -1.475432	 -1.314822
H	 0.877680	 -0.244011	 1.301163
H	 1.309385	 -1.931064	 1.050868
H	 -0.310687	 -1.514731	 1.559790
H	 -0.836781	 -2.283205	 -2.065456
H	 0.253661	 -3.186290	 -1.021293
H	 -1.326392	 -2.722047	 -0.433957

2 3 6 7 F
