%nprocshared=1
%mem=2GB
#HF/6-31G* nosymm scf=tight 

Mol

0 1
O	 1.214711	 1.306902	 -0.000018
C	 1.122059	 0.121804	 -0.000188
C	 -0.170150	 -0.657997	 -0.000612
O	 2.172624	 -0.688929	 0.000216
C	 -1.412532	 0.227344	 -0.000452
H	 -0.153702	 -1.313099	 -0.867402
H	 -0.153924	 -1.313811	 0.865644
C	 -2.544312	 -0.358898	 -0.845887
H	 -1.149803	 1.213632	 -0.370201
H	 -1.751577	 0.368870	 1.021077
C	 -3.793473	 0.521204	 -0.850228
H	 -2.199041	 -0.499418	 -1.868197
H	 -2.801825	 -1.348105	 -0.472753
H	 -3.576215	 1.507261	 -1.250410
H	 -4.580053	 0.083301	 -1.456702
H	 -4.183652	 0.651996	 0.154905
C	 3.452279	 -0.082609	 0.000533
H	 3.583069	 0.529321	 -0.880332
H	 4.163299	 -0.894027	 0.001117
H	 3.582335	 0.529955	 0.881077

9 5 8 12 F
1 2 3 6 F
1 2 4 17 F
