%nprocshared=1
%mem=2GB
#HF/6-31G* nosymm scf=tight 

Mol

0 1
H	 5.290045	 0.585324	 1.041588
C	 4.711899	 0.066501	 0.283239
C	 3.227392	 0.036878	 0.644539
H	 4.872447	 0.576875	 -0.661792
H	 5.114879	 -0.938330	 0.189844
C	 2.383301	 -0.694274	 -0.401759
H	 2.865189	 1.053816	 0.755200
H	 3.102262	 -0.448878	 1.611014
C	 0.894848	 -0.755909	 -0.058282
H	 2.502643	 -0.213232	 -1.366124
H	 2.752040	 -1.712051	 -0.507607
C	 0.169600	 0.576866	 -0.172154
H	 0.389545	 -1.442504	 -0.735797
H	 0.742648	 -1.162213	 0.939180
C	 -1.181045	 0.701995	 0.511084
O	 0.630568	 1.489292	 -0.789724
C	 -2.285934	 -0.139295	 -0.145128
H	 -1.449051	 1.751551	 0.493206
H	 -1.071135	 0.403303	 1.551943
C	 -3.651768	 0.085446	 0.506485
H	 -2.346596	 0.110469	 -1.202272
H	 -2.034737	 -1.195320	 -0.088721
C	 -4.759797	 -0.746382	 -0.137905
H	 -3.908762	 1.140117	 0.445781
H	 -3.588286	 -0.154158	 1.565709
H	 -4.868882	 -0.505166	 -1.191300
H	 -4.548009	 -1.809175	 -0.062213
H	 -5.715422	 -0.564821	 0.343442

10 6 3 2 F
12 15 17 21 F
