%nprocshared=4
%mem=2GB
#HF/6-31G* nosymm scf=tight opt=ModRedundant

Mol

0 1
H	 2.591676	 2.013956	 0.335017
O	 3.341076	 1.666752	 -0.126416
C	 3.569581	 0.339145	 0.272707
C	 2.539767	 -0.640285	 -0.279495
H	 4.553106	 0.084646	 -0.100901
H	 3.608576	 0.269204	 1.359154
C	 2.661401	 -2.056770	 0.287643
H	 1.546808	 -0.248907	 -0.074017
H	 2.649928	 -0.673510	 -1.362143
C	 1.649416	 -3.028380	 -0.326099
H	 2.524678	 -2.023038	 1.364924
H	 3.669446	 -2.432221	 0.110948
C	 1.784243	 -4.481104	 0.144810
H	 0.641413	 -2.674531	 -0.117373
H	 1.760158	 -3.005612	 -1.408189
C	 1.461585	 -4.711760	 1.623718
H	 1.118779	 -5.098057	 -0.455476
H	 2.792994	 -4.834352	 -0.063700
C	 1.507388	 -6.188884	 2.020508
H	 0.471942	 -4.312769	 1.841720
H	 2.157771	 -4.158462	 2.249408
C	 1.191974	 -6.421324	 3.497718
H	 0.802297	 -6.747830	 1.409023
H	 2.492493	 -6.591788	 1.794404
H	 0.199238	 -6.058258	 3.748482
H	 1.230450	 -7.477229	 3.747155
H	 1.902681	 -5.904769	 4.136804

8 4 3 2 F
