%nprocshared=1
%mem=2GB
#HF/6-31G* nosymm scf=tight 

Mol

0 1
H	 -3.420663	 1.227371	 -1.044276
O	 -3.452007	 0.283848	 -0.965577
C	 -3.181085	 -0.079926	 0.364119
C	 -1.765924	 0.277073	 0.805136
H	 -3.327791	 -1.152017	 0.410903
H	 -3.905698	 0.375695	 1.036898
C	 -0.677594	 -0.417312	 -0.014550
H	 -1.637766	 1.358238	 0.744969
H	 -1.659588	 0.017670	 1.857098
C	 -1.237659	 -1.280405	 -1.147059
H	 -0.069335	 -1.028186	 0.645422
H	 -0.012278	 0.337119	 -0.431181
C	 -0.142145	 -1.967490	 -1.966722
H	 -1.908533	 -2.025133	 -0.725480
H	 -1.844294	 -0.662085	 -1.807573
C	 -0.649701	 -2.773124	 -3.168178
H	 0.437368	 -2.620749	 -1.316250
H	 0.549603	 -1.209127	 -2.327535
C	 -1.493174	 -3.996123	 -2.803169
H	 0.208484	 -3.102959	 -3.748711
H	 -1.224448	 -2.120182	 -3.822040
H	 -0.948070	 -4.661668	 -2.139052
H	 -1.757334	 -4.561342	 -3.691754
H	 -2.417912	 -3.719069	 -2.307928

20 16 13 17 F
17 13 10 7 F
13 10 7 11 F
1 2 3 5 F
7 4 3 2 F
