%nprocshared=4
%mem=2GB
#HF/6-31G* nosymm scf=tight opt=ModRedundant

Mol

0 1
O	 0.625848	 1.349995	 -0.000749
C	 0.486307	 0.169203	 0.000779
C	 1.608116	 -0.841643	 0.000302
O	 -0.698257	 -0.426125	 0.001050
C	 2.990107	 -0.200498	 -0.000684
H	 1.468623	 -1.481519	 -0.865924
H	 1.469683	 -1.481289	 0.866878
H	 3.129736	 0.423364	 -0.875135
H	 3.757882	 -0.966877	 -0.001197
H	 3.130964	 0.423383	 0.873533
C	 -0.794772	 -1.698765	 0.632296
C	 -2.230185	 -2.162332	 0.501887
H	 -0.498506	 -1.601966	 1.667883
H	 -0.108410	 -2.383223	 0.152698
H	 -2.905348	 -1.463497	 0.982454
H	 -2.349010	 -3.133192	 0.971951
H	 -2.513206	 -2.249124	 -0.541005

11 4 2 3 F
