%nprocshared=1
%mem=2GB
#HF/6-31G* nosymm scf=tight 

Mol

0 1
H	 -2.798360	 -0.862255	 -0.071053
N	 -1.863561	 -0.715187	 0.256814
C	 -1.344686	 0.554728	 -0.219830
H	 -1.300452	 -1.461917	 -0.101532
C	 0.018572	 0.353338	 -0.847605
H	 -1.989803	 1.046548	 -0.949172
H	 -1.239283	 1.226201	 0.626808
O	 -0.135758	 -0.448800	 -1.983319
H	 0.451543	 1.314434	 -1.124135
H	 0.682696	 -0.128017	 -0.133132
C	 1.058054	 -0.786091	 -2.614682
H	 0.814225	 -1.400140	 -3.470947
H	 1.590896	 0.099082	 -2.957510
H	 1.713090	 -1.348235	 -1.952314

8 5 3 6 F
5 8 11 13 F
11 8 5 3 F
