%nprocshared=4
%mem=2GB
#HF/cc-pVTZ nosymm scf=tight 
prop=(read,field)

Mol

0 1
H	 -2.032960	 -1.268105	 0.000000
C	 -1.127921	 -0.688714	 0.000000
N	 0.000055	 -1.369170	 -0.000000
C	 -1.186962	 0.691879	 0.000000
C	 1.127964	 -0.688639	 0.000000
H	 -2.134709	 1.193056	 0.000000
C	 -0.000049	 1.395988	 -0.000000
H	 2.033051	 -1.267950	 0.000000
C	 1.186911	 0.691970	 0.000000
H	 -0.000094	 2.469463	 0.000000
H	 2.134624	 1.193210	 0.000000

@grid.dat /N
