%nprocshared=4
%mem=2GB
#HF/6-31G* nosymm scf=tight opt=ModRedundant

Mol

0 1
H	 1.991797	 3.029220	 -2.575491
N	 1.230767	 2.379061	 -2.616378
C	 0.929306	 1.853611	 -1.292539
H	 1.514341	 1.639912	 -3.231256
C	 -0.290631	 0.939832	 -1.342697
H	 0.718488	 2.697760	 -0.643057
H	 1.767503	 1.314886	 -0.843541
C	 -0.679275	 0.379305	 0.025956
H	 -1.119485	 1.497426	 -1.769222
H	 -0.089652	 0.115172	 -2.025982
C	 -1.903357	 -0.536963	 -0.023547
H	 -0.877381	 1.203019	 0.710134
H	 0.161394	 -0.170195	 0.446875
C	 -3.225172	 0.228290	 0.028445
H	 -1.867824	 -1.134999	 -0.931459
H	 -1.860449	 -1.239604	 0.805977
H	 -3.313397	 0.915643	 -0.808262
H	 -4.073500	 -0.448134	 -0.008893
H	 -3.306061	 0.809945	 0.942516

12 8 11 15 F
