%nprocshared=4
%mem=2GB
#HF/cc-pVTZ nosymm scf=tight opt=ModRedundant

Mol

0 1
H	 -3.258660	 -0.290394	 1.471450
C	 -3.307964	 -0.275695	 0.374072
C	 -2.653809	 0.914422	 -0.273689
O	 -3.855140	 -1.148880	 -0.205112
C	 -3.570527	 2.140294	 -0.324096
H	 -1.730879	 1.127546	 0.249869
H	 -2.401047	 0.615320	 -1.288555
C	 -3.878122	 2.732328	 1.049608
H	 -3.099844	 2.895086	 -0.944648
H	 -4.499008	 1.874992	 -0.823829
C	 -4.783486	 3.959352	 0.982453
H	 -2.944560	 2.998009	 1.538466
H	 -4.342686	 1.978325	 1.679755
C	 -5.079592	 4.556449	 2.356878
H	 -4.318378	 4.705039	 0.345295
H	 -5.720645	 3.687758	 0.501549
C	 -6.049280	 5.739463	 2.347716
H	 -4.146235	 4.863018	 2.823402
H	 -5.492856	 3.777646	 2.991688
C	 -5.522358	 6.991788	 1.651211
H	 -6.292447	 5.990118	 3.375546
H	 -6.982896	 5.434100	 1.882505
H	 -4.585067	 7.316871	 2.091442
H	 -5.351711	 6.827481	 0.594060
H	 -6.229447	 7.808261	 1.742653

6 3 2 4 F
