%nprocshared=4
%mem=2GB
#HF/6-31G* nosymm scf=tight opt=ModRedundant

Mol

0 1
O	 1.214711	 1.306902	 -0.000018
C	 1.122059	 0.121804	 -0.000188
C	 -0.170150	 -0.657997	 -0.000612
O	 2.172624	 -0.688929	 0.000216
C	 -1.412532	 0.227344	 -0.000452
H	 -0.153702	 -1.313099	 -0.867402
H	 -0.153924	 -1.313811	 0.865644
C	 -1.227688	 1.488388	 0.845105
H	 -2.258975	 -0.342980	 0.369371
H	 -1.657150	 0.501746	 -1.021906
C	 -2.467331	 2.381847	 0.849767
H	 -0.981988	 1.207773	 1.867339
H	 -0.376786	 2.054736	 0.471894
H	 -3.328392	 1.854574	 1.250031
H	 -2.310063	 3.268207	 1.456321
H	 -2.718491	 2.708084	 -0.155285
C	 3.452279	 -0.082609	 0.000533
H	 3.583069	 0.529321	 -0.880332
H	 4.163299	 -0.894027	 0.001117
H	 3.582335	 0.529955	 0.881077

9 5 3 6 F
