%nprocshared=1
%mem=2GB
#HF/6-31G* nosymm scf=tight 
prop=(read,field)

Mol

0 1
H	 -3.301468	 0.570495	 -0.000000
C	 -2.250832	 0.344142	 -0.000000
C	 -1.813516	 -0.976077	 -0.000000
C	 -1.315154	 1.358025	 0.000000
H	 -2.528711	 -1.779398	 -0.000000
C	 -0.467148	 -1.270174	 -0.000000
H	 -1.634925	 2.385075	 0.000000
C	 0.047230	 1.078082	 0.000000
H	 -0.115799	 -2.285254	 -0.000000
C	 0.472212	 -0.241188	 -0.000000
H	 0.750125	 1.888393	 0.000000
O	 1.765405	 -0.628477	 0.000000
C	 2.778569	 0.335149	 -0.000000
H	 2.731429	 0.961190	 -0.884976
H	 3.711852	 -0.207799	 0.000000
H	 2.731429	 0.961190	 0.884976

@grid.dat /N
