%nprocshared=1
%mem=2GB
#HF/6-31G* nosymm scf=tight 

Mol

0 1
H	 2.591676	 2.013956	 0.335017
O	 3.341076	 1.666752	 -0.126416
C	 3.569581	 0.339145	 0.272707
C	 2.539767	 -0.640285	 -0.279495
H	 4.553106	 0.084646	 -0.100901
H	 3.608576	 0.269204	 1.359154
C	 1.115811	 -0.397273	 0.226630
H	 2.556196	 -0.582511	 -1.364741
H	 2.852081	 -1.648031	 -0.010655
C	 0.237144	 0.320470	 -0.801770
H	 1.156846	 0.188558	 1.140678
H	 0.655904	 -1.351062	 0.485692
C	 -1.223665	 0.512787	 -0.378223
H	 0.675398	 1.289698	 -1.032806
H	 0.254651	 -0.248370	 -1.729032
C	 -1.431682	 1.459276	 0.807258
H	 -1.778793	 0.898101	 -1.230972
H	 -1.661383	 -0.457065	 -0.146646
C	 -2.908861	 1.701410	 1.124671
H	 -0.950069	 2.412595	 0.594323
H	 -0.942713	 1.062151	 1.693544
C	 -3.119272	 2.640790	 2.311666
H	 -3.402750	 2.113103	 0.247135
H	 -3.393951	 0.748964	 1.328189
H	 -2.673315	 3.613767	 2.125483
H	 -4.175571	 2.793945	 2.510187
H	 -2.668209	 2.239188	 3.214783

14 10 7 4 F
14 10 13 16 F
8 4 3 2 F
10 13 16 20 F
20 16 19 22 F
4 3 2 1 F
