%nprocshared=4
%mem=2GB
#HF/cc-pVTZ nosymm scf=tight opt=ModRedundant

Mol

0 1
H	 2.218374	 1.768207	 -1.513109
C	 1.498368	 1.595179	 -0.723849
C	 1.322304	 0.099773	 -0.484271
H	 1.856183	 2.097751	 0.167644
H	 0.564387	 2.059775	 -1.019098
C	 0.308557	 -0.162619	 0.622645
H	 2.268737	 -0.347430	 -0.206769
H	 0.984958	 -0.386028	 -1.391538
N	 -1.069352	 -0.004081	 0.085342
H	 0.371632	 -1.172932	 0.991288
H	 0.400391	 0.548875	 1.426218
O	 -1.584901	 -0.965470	 -0.377818
O	 -1.548033	 1.079343	 0.130056

7 3 6 9 F
