%nprocshared=4
%mem=2GB
#HF/cc-pVTZ nosymm scf=tight opt=ModRedundant

Mol

0 1
H	 -2.543956	 -0.781976	 -0.207125
O	 -2.321081	 -0.207601	 0.502326
C	 -1.171029	 0.526351	 0.187947
C	 0.074189	 -0.335341	 0.256591
H	 -1.244471	 0.981778	 -0.794560
H	 -1.097324	 1.323494	 0.913765
O	 1.172093	 0.457955	 -0.054438
H	 -0.008890	 -1.166070	 -0.446178
H	 0.167948	 -0.759829	 1.253884
C	 2.395478	 -0.199028	 -0.000366
H	 2.505946	 -0.901710	 -0.823354
H	 3.174616	 0.545641	 -0.071768
H	 2.513730	 -0.742241	 0.934223

4 7 10 13 F
