%nprocshared=1
%mem=2GB
#HF/6-31G* nosymm scf=tight 

Mol

0 1
O	 -2.324561	 1.361987	 -0.277663
C	 -2.105885	 0.203427	 -0.092314
C	 -0.889235	 -0.467034	 -0.705952
C	 -3.002843	 -0.643787	 0.782369
C	 0.379448	 -0.143569	 0.099626
H	 -0.781422	 -0.090588	 -1.717371
H	 -1.031446	 -1.542684	 -0.758670
C	 1.631333	 -0.777471	 -0.511575
H	 0.482768	 0.934507	 0.149241
H	 0.263088	 -0.495696	 1.123449
C	 2.915987	 -0.544314	 0.291766
H	 1.766672	 -0.399098	 -1.523130
H	 1.471257	 -1.849544	 -0.605828
C	 3.373361	 0.914346	 0.347591
H	 3.708709	 -1.142521	 -0.150311
H	 2.780642	 -0.921148	 1.303579
H	 3.506512	 1.320010	 -0.651625
H	 4.322697	 0.999599	 0.867103
H	 2.660624	 1.545032	 0.868198
H	 -3.496776	 -1.398703	 0.176238
H	 -3.747991	 -0.022874	 1.259869
H	 -2.421560	 -1.168010	 1.535432

6 3 2 1 F
3 5 8 12 F
12 8 11 15 F
