%nprocshared=4
%mem=2GB
#HF/cc-pVTZ nosymm scf=tight opt=ModRedundant

Mol

0 1
H	 -7.887995	 3.827767	 0.474724
C	 -7.688026	 2.774438	 0.235150
C	 -6.567269	 2.147958	 1.019572
O	 -8.327795	 2.224467	 -0.592820
C	 -5.601739	 1.349111	 0.139077
H	 -6.054635	 2.926457	 1.569555
H	 -7.030125	 1.478269	 1.741088
C	 -4.789956	 2.214817	 -0.822038
H	 -4.927027	 0.796575	 0.783908
H	 -6.159763	 0.604064	 -0.422801
C	 -5.641798	 2.853761	 -1.915610
H	 -4.013298	 1.606332	 -1.277730
H	 -4.273716	 2.994786	 -0.268348
C	 -6.900381	 3.527547	 -1.372262
H	 -5.037082	 3.575553	 -2.455684
H	 -5.927719	 2.092630	 -2.638262
C	 -7.827821	 4.111512	 -2.439380
H	 -6.614724	 4.314215	 -0.677756
H	 -7.459838	 2.800038	 -0.790848
C	 -7.244121	 5.287623	 -3.218572
H	 -8.743922	 4.435874	 -1.955707
H	 -8.114795	 3.326049	 -3.133643
H	 -6.941812	 6.086551	 -2.549005
H	 -6.377675	 4.999038	 -3.801388
H	 -7.976863	 5.694192	 -3.906144

12 8 11 14 F
