%nprocshared=1
%mem=2GB
#HF/6-31G* nosymm scf=tight 

Mol

0 1
H	 2.591676	 2.013956	 0.335017
O	 3.341076	 1.666752	 -0.126416
C	 3.569581	 0.339145	 0.272707
C	 4.410819	 -0.451622	 -0.723152
H	 4.088357	 0.401957	 1.220653
H	 2.624920	 -0.172041	 0.454598
C	 3.744958	 -0.640708	 -2.088342
H	 5.363753	 0.055762	 -0.849022
H	 4.625309	 -1.426007	 -0.287336
C	 4.590444	 -1.483986	 -3.046910
H	 3.556508	 0.333111	 -2.531657
H	 2.773931	 -1.117747	 -1.954626
C	 3.931495	 -1.775806	 -4.400043
H	 5.545972	 -0.989206	 -3.211247
H	 4.819444	 -2.431674	 -2.564056
C	 3.720998	 -0.549337	 -5.292200
H	 4.552352	 -2.491297	 -4.935230
H	 2.975384	 -2.270224	 -4.235003
C	 3.159042	 -0.904186	 -6.670505
H	 4.669215	 -0.027956	 -5.415308
H	 3.047143	 0.153906	 -4.808805
C	 2.941943	 0.318911	 -7.560766
H	 3.835253	 -1.596414	 -7.167543
H	 2.216339	 -1.433798	 -6.549236
H	 3.873419	 0.852401	 -7.727995
H	 2.545236	 0.034634	 -8.530532
H	 2.240815	 1.014449	 -7.107984

14 10 7 4 F
14 10 13 16 F
10 7 4 8 F
8 4 3 2 F
10 13 16 20 F
20 16 19 22 F
