%nprocshared=4
%mem=2GB
#HF/6-31G* nosymm scf=tight opt=ModRedundant

Mol

0 1
O	 3.005264	 0.717056	 -0.988654
C	 2.701189	 0.057885	 -0.047330
C	 1.557611	 0.344411	 0.895496
O	 3.347903	 -1.046386	 0.304773
C	 0.773921	 1.601208	 0.523463
H	 0.927511	 -0.538752	 0.909197
H	 1.976068	 0.426036	 1.895460
C	 -0.323913	 1.964246	 1.529176
H	 0.340721	 1.474481	 -0.464159
H	 1.468594	 2.430127	 0.441331
C	 -1.479420	 0.962780	 1.612722
H	 -0.725935	 2.936176	 1.252674
H	 0.116711	 2.090396	 2.517076
C	 -2.599885	 1.423780	 2.547087
H	 -1.886263	 0.802069	 0.615491
H	 -1.113932	 -0.003479	 1.952918
C	 -3.757582	 0.428402	 2.642441
H	 -2.980602	 2.384817	 2.205477
H	 -2.191578	 1.594984	 3.541910
C	 -4.874028	 0.898021	 3.574485
H	 -4.166115	 0.255409	 1.649055
H	 -3.379719	 -0.531623	 2.987916
H	 -5.679609	 0.171750	 3.621138
H	 -5.297022	 1.839710	 3.236115
H	 -4.504333	 1.047174	 4.585105
C	 4.728119	 -1.109107	 -0.004993
H	 4.882018	 -1.033965	 -1.071845
H	 5.068212	 -2.067527	 0.355250
H	 5.265056	 -0.311663	 0.488280

1 2 4 26 F
