%nprocshared=4
%mem=2GB
#HF/cc-pVTZ nosymm scf=tight opt=ModRedundant

Mol

0 1
H	 -3.091860	 0.355875	 -1.572812
C	 -2.084821	 0.173411	 -1.252353
C	 -1.706687	 -1.081940	 -0.797445
C	 -1.146930	 1.178971	 -1.285279
H	 -2.424996	 -1.879114	 -0.764605
C	 -0.417520	 -1.320093	 -0.385919
H	 -1.420688	 2.156773	 -1.634060
C	 0.159519	 0.955622	 -0.873310
H	 -0.115149	 -2.286284	 -0.032767
C	 0.526124	 -0.298870	 -0.421724
H	 0.865595	 1.759041	 -0.911178
O	 1.760432	 -0.625184	 0.000000
C	 2.773565	 0.334879	 0.000000
H	 2.728295	 0.960928	 -0.884150
H	 3.706387	 -0.206610	 0.000000
H	 2.728295	 0.960928	 0.884150

10 12 13 14 F
