%nprocshared=1
%mem=2GB
#HF/6-31G* nosymm scf=tight 

Mol

0 1
O	 -0.682937	 1.318834	 -0.186099
C	 -0.860635	 0.152188	 -0.042321
C	 -2.173363	 -0.477127	 0.338347
O	 0.083258	 -0.765189	 -0.202595
H	 -2.477673	 -1.180929	 -0.427595
H	 -2.923125	 0.290956	 0.455536
H	 -2.058825	 -1.029004	 1.264191
C	 0.862817	 -0.734817	 -1.395978
C	 2.016629	 0.244166	 -1.282150
H	 0.223598	 -0.492477	 -2.231329
H	 1.223503	 -1.746962	 -1.509854
H	 2.633938	 0.189396	 -2.173587
H	 1.653046	 1.259152	 -1.182251
H	 2.635633	 0.006078	 -0.423918

10 8 4 2 F
