%nprocshared=4
%mem=2GB
#HF/cc-pVTZ nosymm scf=tight opt=ModRedundant

Mol

0 1
H	 -3.868578	 -1.843293	 0.814714
C	 -2.800452	 -1.742260	 0.847511
C	 -2.089950	 -2.268111	 1.911610
C	 -2.138945	 -1.087016	 -0.173786
H	 -2.604078	 -2.776576	 2.703971
C	 -0.717427	 -2.137886	 1.953051
H	 -2.690859	 -0.679569	 -0.998559
C	 -0.764653	 -0.955807	 -0.133725
H	 -0.151799	 -2.538948	 2.769306
C	 -0.049721	 -1.481387	 0.930769
H	 -0.249294	 -0.448937	 -0.923040
C	 1.434027	 -1.367148	 1.022218
O	 1.968286	 -0.725612	 -0.000027
O	 2.075146	 -1.804974	 1.918015
C	 3.373556	 -0.568203	 0.000011
H	 3.695416	 -0.031588	 -0.879663
H	 3.782700	 -1.565294	 -0.000152
H	 3.695405	 -0.031851	 0.879862

12 13 15 16 F
