%nprocshared=1
%mem=2GB
#HF/6-31G* nosymm scf=tight 

Mol

0 1
H	 -2.499100	 -0.730091	 -0.745082
O	 -2.347518	 -0.290803	 0.079804
C	 -1.184022	 0.487508	 -0.006784
C	 0.062599	 -0.378592	 0.031606
H	 -1.176523	 1.099369	 -0.904519
H	 -1.187323	 1.153111	 0.844927
O	 1.171513	 0.459272	 -0.058250
H	 0.050699	 -1.089204	 -0.797170
H	 0.078739	 -0.954914	 0.954740
C	 2.382027	 -0.203205	 -0.245122
H	 2.382923	 -0.777020	 -1.169982
H	 3.159848	 0.545938	 -0.296909
H	 2.596658	 -0.878692	 0.580374

8 4 3 5 F
1 2 3 5 F
4 7 10 13 F
