%nprocshared=4
%mem=2GB
#HF/cc-pVTZ nosymm scf=tight opt=ModRedundant

Mol

0 1
H	 -0.132050	 -0.688587	 0.856353
N	 -0.625934	 -0.663929	 -0.000707
C	 -1.978635	 -0.158664	 0.001017
C	 0.006257	 -1.104676	 -1.110959
H	 -2.519057	 -0.493535	 -0.876362
H	 -1.938890	 0.917202	 -0.004137
H	 -2.514266	 -0.485137	 0.884506
C	 1.421975	 -1.585893	 -0.880756
O	 -0.499410	 -1.112782	 -2.194153
H	 1.431142	 -2.412561	 -0.179947
H	 1.839221	 -1.907528	 -1.820716
H	 2.030814	 -0.789425	 -0.468965

4 2 3 5 F
