%nprocshared=4
%mem=2GB
#HF/6-31G* nosymm scf=tight opt=ModRedundant

Mol

0 1
O	 -2.042549	 -1.228399	 -0.269030
C	 -1.653912	 -0.146171	 0.050137
C	 -0.332303	 0.024011	 0.778412
C	 -2.438579	 1.106236	 -0.272369
C	 -0.491851	 -0.262188	 2.279914
H	 0.423294	 -0.631976	 0.355166
H	 -0.008405	 1.049202	 0.637000
C	 0.811432	 -0.072198	 3.057338
H	 -0.850309	 -1.279876	 2.424491
H	 -1.257316	 0.396863	 2.678482
C	 0.653580	 -0.347450	 4.552171
H	 1.576107	 -0.728290	 2.647168
H	 1.169512	 0.944321	 2.912299
H	 0.328627	 -1.368398	 4.731404
H	 -0.081888	 0.316364	 4.997008
H	 1.591852	 -0.202093	 5.078046
H	 -3.277823	 0.863061	 -0.908988
H	 -1.806773	 1.843019	 -0.759671
H	 -2.802853	 1.554979	 0.648059

5 3 2 4 F
