%nprocshared=1
%mem=2GB
#HF/6-31G* nosymm scf=tight opt=ModRedundant

Mol

0 1
H	 -2.646374	 -0.642757	 1.268656
C	 -2.083525	 -0.384536	 0.393091
O	 -0.807605	 -0.127164	 0.768327
F	 -2.118945	 -1.383102	 -0.486752
F	 -2.621877	 0.670592	 -0.209486
C	 0.084052	 0.273579	 -0.209957
C	 1.045119	 -0.886014	 -0.437674
Cl	 0.965549	 1.724381	 0.295368
H	 -0.404117	 0.496510	 -1.142570
F	 1.920801	 -0.580513	 -1.371477
F	 0.357328	 -1.932783	 -0.848352
F	 1.690287	 -1.215675	 0.654596

9 6 3 2 F
