%nprocshared=1
%mem=2GB
#HF/6-31G* nosymm scf=tight opt=ModRedundant

Mol

0 1
H	 3.481769	 -1.573176	 -2.329685
C	 3.081811	 -1.444006	 -1.329136
C	 1.812262	 -0.593837	 -1.349664
H	 2.885905	 -2.432195	 -0.922528
H	 3.856018	 -0.984316	 -0.721241
C	 1.217350	 -0.386724	 0.039429
H	 1.061149	 -1.056991	 -1.981889
H	 2.035317	 0.375427	 -1.792569
N	 0.000003	 0.397874	 -0.023260
H	 0.970432	 -1.352891	 0.471305
H	 1.969351	 0.062620	 0.696668
C	 -1.217365	 -0.386708	 0.039277
H	 -0.000031	 1.072115	 0.718656
C	 -2.452633	 0.504241	 -0.042481
H	 -1.215291	 -1.074557	 -0.802042
H	 -1.269739	 -1.003477	 0.942735
C	 -3.758029	 -0.289423	 -0.010781
H	 -2.394220	 1.093569	 -0.952170
H	 -2.440793	 1.210787	 0.785871
H	 -3.816659	 -0.981993	 -0.845726
H	 -4.617837	 0.370165	 -0.069296
H	 -3.847478	 -0.867502	 0.904682

10 6 9 12 F
