%nprocshared=4
%mem=2GB
#HF/6-31G* nosymm scf=tight opt=ModRedundant

Mol

0 1
H	 -2.646374	 -0.642757	 1.268656
C	 -2.083525	 -0.384536	 0.393091
O	 -0.807605	 -0.127164	 0.768327
F	 -2.118945	 -1.383102	 -0.486752
F	 -2.621877	 0.670592	 -0.209486
C	 0.084052	 0.273579	 -0.209957
C	 0.880980	 -0.958995	 -0.617174
Cl	 1.161972	 1.540268	 0.398979
H	 -0.412232	 0.659301	 -1.083281
F	 1.746765	 -0.655371	 -1.560767
F	 0.049928	 -1.861409	 -1.099295
F	 1.526384	 -1.487172	 0.393991

9 6 3 2 F
