%nprocshared=1
%mem=2GB
#HF/6-31G* nosymm scf=tight opt=ModRedundant

Mol

0 1
H	 2.465338	 -2.224223	 0.000000
O	 2.784187	 -1.332015	 0.000000
C	 1.765313	 -0.449364	 0.000000
C	 0.581648	 -0.840339	 -0.618077
C	 1.863030	 0.799600	 0.581958
H	 0.530677	 -1.816128	 -1.063157
C	 -0.497234	 0.018725	 -0.651054
H	 2.762647	 1.126794	 1.064823
C	 0.760393	 1.637078	 0.530581
H	 -1.407217	 -0.291255	 -1.130326
C	 -0.423979	 1.279168	 -0.073334
N	 0.869089	 2.957220	 1.147750
H	 -1.252331	 1.956611	 -0.090859
O	 1.906723	 3.243412	 1.664898
O	 -0.084424	 3.671863	 1.099144

4 3 2 1 F
