%nprocshared=1
%mem=2GB
#HF/6-31G* nosymm scf=tight 

Mol

0 1
H	 2.591676	 2.013956	 0.335017
O	 3.341076	 1.666752	 -0.126416
C	 3.569581	 0.339145	 0.272707
C	 4.944370	 0.127299	 0.897051
H	 2.799532	 0.113554	 0.999211
H	 3.430502	 -0.340569	 -0.567189
C	 6.109364	 0.374704	 -0.064431
H	 5.036621	 0.783413	 1.758660
H	 4.993720	 -0.894517	 1.269641
C	 7.473065	 0.101400	 0.576227
H	 6.072027	 1.402847	 -0.413564
H	 5.994231	 -0.259513	 -0.943553
C	 8.670436	 0.251619	 -0.369329
H	 7.605276	 0.761116	 1.431880
H	 7.472416	 -0.911833	 0.972532
C	 8.926561	 1.678120	 -0.863264
H	 9.560428	 -0.101249	 0.147599
H	 8.537336	 -0.408125	 -1.225401
C	 10.190996	 1.795321	 -1.717024
H	 9.009732	 2.345216	 -0.006424
H	 8.077407	 2.031511	 -1.443226
C	 10.445510	 3.217017	 -2.216692
H	 11.048305	 1.457542	 -1.138739
H	 10.113892	 1.122268	 -2.568457
H	 10.559855	 3.909445	 -1.387420
H	 11.348976	 3.267733	 -2.816535
H	 9.621476	 3.570911	 -2.829955

14 10 7 4 F
14 10 13 16 F
10 7 4 8 F
8 4 3 2 F
10 13 16 20 F
20 16 19 22 F
