%nprocshared=4
%mem=2GB
#HF/cc-pVTZ nosymm scf=tight opt=ModRedundant

Mol

0 1
H	 -0.623130	 2.579853	 -2.819305
O	 -1.091920	 1.834949	 -2.490285
C	 -0.600709	 1.471607	 -1.230589
C	 0.753933	 0.799428	 -1.335059
H	 -0.531684	 2.327804	 -0.567044
H	 -1.312711	 0.781247	 -0.801475
O	 1.172093	 0.457955	 -0.054438
H	 1.470197	 1.476458	 -1.803559
H	 0.674787	 -0.081272	 -1.968841
C	 2.395478	 -0.199028	 -0.000366
H	 2.505946	 -0.901710	 -0.823354
H	 3.174616	 0.545641	 -0.071768
H	 2.513730	 -0.742241	 0.934223

4 7 10 13 F
