%nprocshared=4
%mem=2GB
#HF/cc-pVTZ nosymm scf=tight opt=ModRedundant

Mol

0 1
H	 1.267987	 -1.358427	 1.864522
O	 0.593384	 -0.797850	 1.528786
C	 1.135873	 0.113391	 0.608264
C	 0.027642	 1.012027	 0.090274
H	 1.583637	 -0.416092	 -0.228948
H	 1.919616	 0.703181	 1.075551
C	 -1.138737	 0.285728	 -0.581921
H	 0.464661	 1.708096	 -0.618252
H	 -0.340737	 1.603071	 0.925246
C	 -1.933983	 -0.631436	 0.343653
H	 -0.763151	 -0.285569	 -1.422081
H	 -1.808359	 1.035291	 -0.992333
H	 -2.789188	 -1.049673	 -0.174718
H	 -1.335629	 -1.461368	 0.700418
H	 -2.305435	 -0.092167	 1.209725

2 3 4 8 F
