%nprocshared=1
%mem=2GB
#HF/6-31G* nosymm scf=tight 

Mol

0 1
O	 -0.682937	 1.318834	 -0.186099
C	 -0.860635	 0.152188	 -0.042321
C	 -2.173363	 -0.477127	 0.338347
O	 0.083258	 -0.765189	 -0.202595
H	 -2.477673	 -1.180929	 -0.427595
H	 -2.923125	 0.290956	 0.455536
H	 -2.058825	 -1.029004	 1.264191
C	 0.871714	 -1.131578	 0.927402
C	 0.177055	 -2.182422	 1.773464
H	 1.095821	 -0.247867	 1.505305
H	 1.787832	 -1.518279	 0.504685
H	 0.831880	 -2.495403	 2.580915
H	 -0.733346	 -1.788419	 2.207399
H	 -0.066677	 -3.053733	 1.175278

10 8 4 2 F
