%nprocshared=4
%mem=2GB
#HF/6-31G* nosymm scf=tight opt=ModRedundant

Mol

0 1
H	 -0.834309	 -1.185940	 0.821982
N	 -0.626943	 -0.667432	 -0.000092
C	 -1.512632	 -0.801262	 -1.134270
C	 0.469286	 0.129090	 0.000148
H	 -1.548897	 -1.829082	 -1.479634
H	 -1.138023	 -0.177806	 -1.929694
H	 -2.518685	 -0.483291	 -0.881717
C	 1.788933	 -0.616240	 -0.000037
O	 0.411098	 1.327768	 -0.000049
H	 1.872803	 -1.245775	 -0.880381
H	 2.595421	 0.101576	 0.003713
H	 1.870096	 -1.252171	 0.875943

3 2 4 9 F
