%nprocshared=4
%mem=2GB
#HF/cc-pVTZ nosymm scf=tight 
prop=(read,field)

Mol

0 1
O	 3.219569	 0.959280	 -0.614118
C	 2.698966	 0.058166	 -0.050249
C	 1.246620	 -0.005824	 0.348404
O	 3.344357	 -1.038711	 0.312305
C	 0.453463	 1.232810	 -0.049015
H	 0.839526	 -0.907829	 -0.092293
H	 1.216939	 -0.160532	 1.422422
C	 -0.998111	 1.217971	 0.432183
H	 0.481754	 1.345432	 -1.127248
H	 0.951669	 2.105546	 0.354881
C	 -1.882695	 0.151240	 -0.211247
H	 -1.429234	 2.193648	 0.228831
H	 -1.019499	 1.099312	 1.513267
C	 -3.342194	 0.243258	 0.225997
H	 -1.825967	 0.246567	 -1.293174
H	 -1.507777	 -0.839661	 0.027683
C	 -4.234261	 -0.821445	 -0.405982
H	 -3.729893	 1.228234	 -0.022703
H	 -3.398604	 0.159941	 1.308929
C	 -5.690990	 -0.721862	 0.034246
H	 -4.179093	 -0.739316	 -1.488078
H	 -3.849720	 -1.806590	 -0.156034
H	 -6.296000	 -1.491096	 -0.431829
H	 -6.115706	 0.239991	 -0.233269
H	 -5.783547	 -0.834709	 1.109377
C	 4.720785	 -1.114357	 0.001437
H	 4.874577	 -1.055568	 -1.065864
H	 5.058080	 -2.067961	 0.373965
H	 5.264577	 -0.313607	 0.480338

@grid.dat /N
