%nprocshared=1
%mem=2GB
#HF/6-31G* nosymm scf=tight 

Mol

0 1
H	 3.178437	 -0.841916	 2.641256
O	 3.898617	 -0.935060	 2.034844
C	 3.681349	 -2.051094	 1.209425
C	 2.589221	 -1.826145	 0.169530
H	 4.625101	 -2.238620	 0.713602
H	 3.451631	 -2.930386	 1.810138
C	 1.198617	 -1.597615	 0.766908
H	 2.867591	 -0.973166	 -0.443906
H	 2.562507	 -2.694059	 -0.487265
C	 0.115918	 -1.429151	 -0.302766
H	 1.222818	 -0.715543	 1.400728
H	 0.937932	 -2.438663	 1.409577
C	 -1.309753	 -1.282496	 0.241564
H	 0.355324	 -0.566311	 -0.921667
H	 0.144909	 -2.292979	 -0.963570
C	 -2.037799	 -0.007733	 -0.193645
H	 -1.890610	 -2.142323	 -0.085726
H	 -1.285946	 -1.330893	 1.329189
C	 -3.489788	 0.042957	 0.286558
H	 -2.017067	 0.064384	 -1.280144
H	 -1.513726	 0.868678	 0.179924
C	 -4.216917	 1.317354	 -0.141063
H	 -4.025645	 -0.823308	 -0.095450
H	 -3.513059	 -0.038752	 1.371301
H	 -4.239342	 1.411634	 -1.223113
H	 -5.243387	 1.322503	 0.212445
H	 -3.726170	 2.201406	 0.256408

14 10 7 4 F
10 7 4 8 F
8 4 3 2 F
10 13 16 20 F
20 16 19 22 F
4 3 2 1 F
