%nprocshared=4
%mem=2GB
#HF/cc-pVTZ nosymm scf=tight opt=ModRedundant

Mol

0 1
H	 -3.144994	 -1.202467	 -0.018751
O	 -2.321472	 -0.864941	 -0.318626
C	 -2.021813	 0.336996	 0.342658
C	 -0.669613	 0.837286	 -0.127252
H	 -2.780861	 1.084746	 0.127159
H	 -2.006390	 0.184138	 1.420053
C	 0.490865	 -0.082543	 0.241244
H	 -0.708709	 0.967192	 -1.204587
H	 -0.507562	 1.822272	 0.303070
C	 0.471355	 -0.511253	 1.705633
H	 1.426540	 0.419156	 0.022456
H	 0.460063	 -0.967556	 -0.391151
C	 1.626459	 -1.436797	 2.072904
H	 0.504086	 0.372149	 2.337481
H	 -0.470665	 -1.007310	 1.925214
H	 2.582877	 -0.955699	 1.897621
H	 1.585775	 -1.721393	 3.118205
H	 1.602569	 -2.346315	 1.481590

10 7 4 8 F
