%nprocshared=4
%mem=2GB
#HF/cc-pVTZ nosymm scf=tight opt=ModRedundant

Mol

0 1
H	 -3.498985	 1.253143	 -1.010443
O	 -3.458596	 0.315260	 -0.960865
C	 -3.176635	 -0.080824	 0.355601
C	 -1.763371	 0.265266	 0.799691
H	 -3.321825	 -1.153438	 0.379502
H	 -3.895468	 0.357385	 1.043382
C	 -1.524970	 1.760057	 0.992275
H	 -1.544420	 -0.264096	 1.725812
H	 -1.071337	 -0.124665	 0.057107
C	 -1.573066	 2.549470	 -0.313284
H	 -0.564536	 1.909806	 1.472957
H	 -2.272774	 2.151748	 1.677748
C	 -2.788790	 2.205945	 -1.171803
H	 -1.569322	 3.610632	 -0.083478
H	 -0.667203	 2.357889	 -0.884743
C	 -2.796091	 0.785075	 -1.738306
H	 -2.861749	 2.917724	 -1.990886
H	 -3.685376	 2.341978	 -0.573266
C	 -1.696845	 0.498988	 -2.758578
H	 -3.759233	 0.607853	 -2.207055
H	 -2.722560	 0.072792	 -0.920586
H	 -1.741773	 1.200228	 -3.585814
H	 -1.802280	 -0.499499	 -3.167416
H	 -0.708455	 0.567647	 -2.320426

7 4 3 2 F
