%nprocshared=4
%mem=2GB
#HF/cc-pVTZ nosymm scf=tight opt=ModRedundant

Mol

0 1
H	 1.933355	 -3.771547	 0.341952
C	 2.178583	 -2.719836	 0.253203
C	 0.917308	 -1.868921	 0.154304
H	 2.769318	 -2.444938	 1.120672
H	 2.805619	 -2.600327	 -0.624043
C	 1.215950	 -0.382441	 0.027187
H	 0.293395	 -2.024080	 1.027473
H	 0.332716	 -2.190533	 -0.704413
N	 0.000002	 0.398953	 -0.040851
H	 1.778471	 -0.054399	 0.896168
H	 1.862729	 -0.215664	 -0.839384
C	 -1.215959	 -0.382435	 0.027143
H	 -0.000012	 1.086078	 0.683841
C	 -2.451944	 0.502410	 -0.038737
H	 -1.221867	 -1.069392	 -0.813828
H	 -1.259993	 -0.999709	 0.929424
C	 -3.752217	 -0.292550	 0.005776
H	 -2.407325	 1.093801	 -0.946480
H	 -2.431979	 1.206234	 0.790023
H	 -3.817783	 -0.982946	 -0.828547
H	 -4.612613	 0.364348	 -0.042306
H	 -3.830160	 -0.871666	 0.919868

10 6 9 12 F
