%nprocshared=4
%mem=2GB
#HF/cc-pVTZ nosymm scf=tight opt=ModRedundant

Mol

0 1
H	 0.372786	 -3.063731	 -4.270100
O	 1.311417	 -3.054546	 -4.296892
C	 1.799065	 -1.830421	 -3.814203
C	 1.658666	 -1.673376	 -2.307448
H	 2.845903	 -1.802073	 -4.084955
H	 1.312159	 -1.000761	 -4.323160
C	 0.429903	 -2.361323	 -1.716924
H	 2.556713	 -2.059680	 -1.834755
H	 1.617172	 -0.609835	 -2.084835
C	 -0.880299	 -1.705520	 -2.150665
H	 0.498387	 -2.350274	 -0.634247
H	 0.422464	 -3.407131	 -2.019442
C	 -2.147694	 -2.399096	 -1.647759
H	 -0.885379	 -0.668324	 -1.824434
H	 -0.910639	 -1.680458	 -3.236446
C	 -2.396361	 -3.790713	 -2.226818
H	 -2.084932	 -2.481320	 -0.566173
H	 -3.008059	 -1.765674	 -1.851975
C	 -3.616064	 -4.480520	 -1.621094
H	 -1.517039	 -4.409493	 -2.061370
H	 -2.527346	 -3.729731	 -3.302981
C	 -3.869418	 -5.868651	 -2.199711
H	 -3.487119	 -4.557378	 -0.544970
H	 -4.494035	 -3.859573	 -1.778113
H	 -3.021430	 -6.523985	 -2.030330
H	 -4.739312	 -6.330515	 -1.746861
H	 -4.040081	 -5.821728	 -3.270236

8 4 3 2 F
