%nprocshared=1
%mem=2GB
#HF/6-31G* nosymm scf=tight 

Mol

0 1
O	 1.442235	 3.586782	 -1.649916
C	 0.655181	 3.600151	 -2.546089
C	 -0.617099	 2.772210	 -2.518630
C	 0.877823	 4.451809	 -3.779080
C	 -0.786743	 1.934669	 -1.254517
H	 -1.459211	 3.451090	 -2.646524
H	 -0.621134	 2.137943	 -3.404119
C	 -2.078456	 1.115421	 -1.262976
H	 -0.770508	 2.589543	 -0.389066
H	 0.068360	 1.274737	 -1.147579
C	 -2.259874	 0.272531	 0.000494
H	 -2.931653	 1.783090	 -1.373974
H	 -2.088922	 0.462112	 -2.134265
C	 -3.549786	 -0.549746	 -0.000374
H	 -2.250276	 0.924664	 0.872073
H	 -1.407964	 -0.395908	 0.112009
C	 -4.809590	 0.315458	 -0.000369
H	 -3.560515	 -1.202009	 -0.871156
H	 -3.561123	 -1.202955	 0.869711
H	 -4.844746	 0.956611	 -0.876632
H	 -5.706986	 -0.295590	 -0.001609
H	 -4.845960	 0.954827	 0.877144
H	 0.059896	 5.154868	 -3.906835
H	 1.808424	 4.993962	 -3.684809
H	 0.909488	 3.829355	 -4.668565

9 5 8 12 F
15 11 8 12 F
1 2 3 6 F
9 5 3 6 F
