%nprocshared=4
%mem=2GB
#HF/6-31G* nosymm scf=tight opt=ModRedundant

Mol

0 1
O	 -0.682937	 1.318834	 -0.186099
C	 -0.860635	 0.152188	 -0.042321
C	 -2.173363	 -0.477127	 0.338347
O	 0.083258	 -0.765189	 -0.202595
H	 -2.477673	 -1.180929	 -0.427595
H	 -2.923125	 0.290956	 0.455536
H	 -2.058825	 -1.029004	 1.264191
C	 1.432622	 -0.330504	 -0.354467
C	 2.090171	 -0.077029	 0.989417
H	 1.453197	 0.553032	 -0.974210
H	 1.920767	 -1.139946	 -0.877933
H	 3.135450	 0.178127	 0.844442
H	 1.608417	 0.743563	 1.506051
H	 2.039070	 -0.963478	 1.612324

8 4 2 1 F
