%nprocshared=1
%mem=2GB
#HF/6-31G* nosymm scf=tight 

Mol

0 1
H	 0.357553	 -3.097690	 1.812386
O	 0.801768	 -2.460209	 1.261889
C	 -0.002652	 -1.407452	 1.116878
C	 0.624473	 -0.343591	 0.253101
O	 -1.075120	 -1.357583	 1.625150
C	 -0.265902	 0.883932	 0.072916
H	 1.579587	 -0.092652	 0.702724
H	 0.858375	 -0.802932	 -0.704003
C	 -1.728698	 0.646073	 0.462102
H	 -0.209144	 1.219470	 -0.958188
H	 0.135059	 1.692851	 0.673903
C	 -2.482460	 -0.343073	 -0.431425
H	 -2.245265	 1.602650	 0.432430
H	 -1.779332	 0.308348	 1.496285
C	 -3.960546	 -0.461025	 -0.060175
H	 -2.395034	 -0.026811	 -1.468912
H	 -2.024850	 -1.327147	 -0.371646
H	 -4.472726	 -1.168004	 -0.705284
H	 -4.465146	 0.496508	 -0.151489
H	 -4.081218	 -0.800940	 0.964585

16 12 9 6 F
12 9 6 10 F
5 3 4 7 F
1 2 3 5 F
