%nprocshared=1
%mem=2GB
#HF/6-31G* nosymm scf=tight 

Mol

0 1
O	 2.862325	 1.357334	 0.000267
C	 2.843464	 0.164689	 -0.000222
C	 1.546494	 -0.624492	 -0.000609
C	 4.124123	 -0.644674	 -0.000428
C	 0.291004	 0.242674	 0.000989
H	 1.557904	 -1.283758	 -0.867573
H	 1.558622	 -1.285963	 0.864672
C	 -0.963549	 -0.541333	 -0.387847
H	 0.432603	 1.074875	 -0.681302
H	 0.162331	 0.680557	 0.985798
C	 -2.228620	 0.318502	 -0.390949
H	 -0.826328	 -0.980601	 -1.374893
H	 -1.098658	 -1.375299	 0.299403
C	 -3.487804	 -0.458572	 -0.779054
H	 -2.094954	 1.152105	 -1.078161
H	 -2.367277	 0.757441	 0.595511
C	 -4.747270	 0.407122	 -0.780105
H	 -3.350856	 -0.896814	 -1.765468
H	 -3.623318	 -1.291229	 -0.091903
H	 -4.656493	 1.230283	 -1.483180
H	 -5.622499	 -0.171319	 -1.059536
H	 -4.931555	 0.832145	 0.202514
H	 4.165367	 -1.288615	 -0.874074
H	 4.976217	 0.020734	 -0.001915
H	 4.166763	 -1.286207	 0.874930

9 5 8 12 F
15 11 8 12 F
15 11 14 18 F
1 2 3 6 F
