%nprocshared=4
%mem=2GB
#HF/cc-pVTZ nosymm scf=tight opt=ModRedundant

Mol

0 1
H	 -2.644180	 -0.653737	 1.272255
C	 -2.092774	 -0.380414	 0.391915
O	 -0.808934	 -0.154049	 0.752536
F	 -2.163230	 -1.351640	 -0.507133
F	 -2.627232	 0.691260	 -0.169301
C	 0.040662	 0.423903	 -0.165864
C	 -0.647718	 1.677866	 -0.699705
Cl	 0.397050	 -0.689588	 -1.499529
H	 0.980707	 0.717072	 0.267741
F	 0.117460	 2.284877	 -1.570947
F	 -0.860941	 2.504786	 0.296313
F	 -1.794026	 1.411404	 -1.262935

6 3 2 4 F
