%nprocshared=4
%mem=2GB
#HF/cc-pVTZ nosymm scf=tight opt=ModRedundant

Mol

0 1
H	 2.614283	 2.028610	 0.296620
O	 3.358864	 1.662087	 -0.142800
C	 3.565468	 0.338079	 0.273842
C	 2.533667	 -0.637565	 -0.272227
H	 4.548038	 0.064914	 -0.086598
H	 3.593945	 0.282242	 1.360360
C	 1.912612	 -0.214758	 -1.601653
H	 3.002299	 -1.611114	 -0.380601
H	 1.749177	 -0.745936	 0.472911
C	 0.858404	 -1.201290	 -2.101889
H	 2.694729	 -0.113161	 -2.346618
H	 1.457084	 0.767752	 -1.490053
C	 0.149826	 -0.790059	 -3.393811
H	 1.319186	 -2.176376	 -2.240144
H	 0.109326	 -1.328929	 -1.325320
C	 1.034733	 -0.771682	 -4.638939
H	 -0.673111	 -1.478487	 -3.565190
H	 -0.301255	 0.190474	 -3.258774
C	 0.261984	 -0.452807	 -5.916275
H	 1.520274	 -1.739155	 -4.747170
H	 1.831126	 -0.043140	 -4.520675
C	 1.143152	 -0.429957	 -7.160828
H	 -0.529316	 -1.185452	 -6.049147
H	 -0.230647	 0.509656	 -5.806543
H	 1.625394	 -1.389344	 -7.316570
H	 0.563729	 -0.203643	 -8.048610
H	 1.922725	 0.319903	 -7.075221

8 4 3 2 F
