%nprocshared=1
%mem=2GB
#HF/6-31G* nosymm scf=tight 

Mol

0 1
O	 -0.998506	 1.319478	 2.483205
C	 -0.563894	 1.752497	 1.459466
C	 0.692431	 1.167909	 0.838010
C	 -1.253086	 2.874886	 0.716073
C	 0.379448	 -0.143569	 0.099626
H	 1.395834	 0.972568	 1.640114
H	 1.147505	 1.879269	 0.154708
C	 1.631333	 -0.777471	 -0.511575
H	 -0.088737	 -0.823713	 0.802187
H	 -0.348107	 0.044305	 -0.688481
C	 2.915987	 -0.544314	 0.291766
H	 1.766672	 -0.399098	 -1.523130
H	 1.471257	 -1.849544	 -0.605828
C	 3.373361	 0.914346	 0.347591
H	 3.708709	 -1.142521	 -0.150311
H	 2.780642	 -0.921148	 1.303579
H	 3.506512	 1.320010	 -0.651625
H	 4.322697	 0.999599	 0.867103
H	 2.660624	 1.545032	 0.868198
H	 -0.619807	 3.758181	 0.719448
H	 -2.196685	 3.107937	 1.189458
H	 -1.418294	 2.603520	 -0.322615

6 3 2 1 F
6 3 5 8 F
12 8 11 15 F
