%nprocshared=1
%mem=2GB
#HF/6-31G* nosymm scf=tight 

Mol

0 1
O	 -2.439739	 -0.935931	 -0.423848
C	 -1.921153	 0.064240	 -0.045697
C	 -2.624470	 1.379923	 0.150949
O	 -0.632575	 0.154573	 0.251549
H	 -2.168117	 2.136577	 -0.476876
H	 -3.669540	 1.273223	 -0.098610
H	 -2.519365	 1.700893	 1.180846
C	 0.160891	 -1.019931	 0.106212
C	 1.589627	 -0.672828	 0.480843
H	 0.089836	 -1.367806	 -0.916050
H	 -0.238459	 -1.792301	 0.749618
C	 1.793419	 -0.407574	 1.973662
H	 1.871368	 0.210430	 -0.088727
H	 2.243510	 -1.477335	 0.154557
C	 3.236466	 -0.035148	 2.311175
H	 1.129606	 0.394966	 2.288910
H	 1.503707	 -1.288205	 2.537502
H	 3.355231	 0.146890	 3.374561
H	 3.544606	 0.864163	 1.785279
H	 3.921745	 -0.831043	 2.033647

16 12 9 8 F
2 4 8 10 F
1 2 4 8 F
