%nprocshared=4
%mem=2GB
#HF/cc-pVTZ nosymm scf=tight opt=ModRedundant

Mol

0 1
H	 2.342730	 0.877684	 -1.045694
C	 2.360424	 0.000000	 -0.411793
C	 1.173749	 0.000000	 0.526870
H	 3.286567	 0.000000	 0.151574
H	 2.342730	 -0.877684	 -1.045694
O	 -0.000000	 0.000000	 -0.223739
H	 1.203779	 0.876757	 1.172538
H	 1.203779	 -0.876757	 1.172538
C	 -1.173749	 0.000000	 0.526870
C	 -2.309026	 -0.513585	 -0.331421
H	 -1.392380	 1.007804	 0.877616
H	 -1.053114	 -0.628734	 1.408137
H	 -2.442294	 0.117187	 -1.201385
H	 -3.234294	 -0.522329	 0.233315
H	 -2.102669	 -1.521081	 -0.670303

11 9 6 3 F
