%nprocshared=1
%mem=2GB
#HF/6-31G* nosymm scf=tight 

Mol

0 1
H	 -3.420663	 1.227371	 -1.044276
O	 -3.452007	 0.283848	 -0.965577
C	 -3.181085	 -0.079926	 0.364119
C	 -1.765924	 0.277073	 0.805136
H	 -3.327791	 -1.152017	 0.410903
H	 -3.905698	 0.375695	 1.036898
C	 -1.651217	 1.673921	 1.416835
H	 -1.419356	 -0.467694	 1.522196
H	 -1.107609	 0.195539	 -0.058110
C	 -0.231818	 2.013324	 1.876499
H	 -2.336787	 1.753522	 2.254909
H	 -1.978639	 2.409547	 0.684002
C	 -0.123694	 3.415278	 2.482239
H	 0.092709	 1.269745	 2.600509
H	 0.451008	 1.934911	 1.031393
C	 1.296688	 3.835860	 2.876929
H	 -0.772323	 3.481173	 3.354382
H	 -0.509335	 4.135383	 1.763528
C	 1.906468	 3.021917	 4.019764
H	 1.277199	 4.883439	 3.167598
H	 1.944899	 3.775806	 2.004909
H	 1.272899	 3.053347	 4.902227
H	 2.878804	 3.416738	 4.298181
H	 2.044588	 1.980508	 3.748555

20 16 13 17 F
17 13 10 7 F
13 10 7 11 F
11 7 4 3 F
1 2 3 5 F
