%nprocshared=4
%mem=2GB
#HF/6-31G* nosymm scf=tight opt=ModRedundant

Mol

0 1
H	 -3.420663	 1.227371	 -1.044276
O	 -3.452007	 0.283848	 -0.965577
C	 -3.181085	 -0.079926	 0.364119
C	 -1.765924	 0.277073	 0.805136
H	 -3.327791	 -1.152017	 0.410903
H	 -3.905698	 0.375695	 1.036898
C	 -0.863838	 -0.941111	 1.007091
H	 -1.321892	 0.944675	 0.066147
H	 -1.829439	 0.848298	 1.729739
C	 0.559949	 -0.570712	 1.427582
H	 -0.836005	 -1.520225	 0.089179
H	 -1.306295	 -1.588194	 1.762677
C	 1.455288	 -1.795468	 1.633559
H	 0.992421	 0.083134	 0.674009
H	 0.526267	 0.007293	 2.350284
C	 2.866946	 -1.480118	 2.141429
H	 1.526187	 -2.350273	 0.699289
H	 0.973730	 -2.462548	 2.345545
C	 3.736991	 -0.697101	 1.156385
H	 3.365312	 -2.417348	 2.377055
H	 2.797699	 -0.930421	 3.078041
H	 3.813986	 -1.217267	 0.205261
H	 4.742789	 -0.571847	 1.545640
H	 3.339069	 0.293112	 0.960680

7 4 3 2 F
