%nprocshared=1
%mem=2GB
#HF/6-31G* nosymm scf=tight 

Mol

0 1
O	 3.225979	 0.970355	 -0.599647
C	 2.701189	 0.057885	 -0.047330
C	 1.245376	 -0.013843	 0.345420
O	 3.347903	 -1.046386	 0.304773
C	 0.455112	 1.231400	 -0.050772
H	 0.838542	 -0.913825	 -0.103701
H	 1.208210	 -0.175333	 1.419774
C	 -0.998893	 1.219485	 0.433193
H	 0.482531	 1.345121	 -1.130325
H	 0.957290	 2.103070	 0.354729
C	 -1.301587	 2.175131	 1.590874
H	 -1.241297	 0.206643	 0.746429
H	 -1.660886	 1.443117	 -0.402131
C	 -2.735417	 2.046529	 2.109133
H	 -0.605986	 1.981222	 2.405955
H	 -1.130961	 3.203906	 1.281873
C	 -3.050811	 3.000451	 3.262688
H	 -2.910301	 1.021994	 2.433137
H	 -3.431453	 2.229771	 1.292031
C	 -4.483417	 2.863004	 3.776935
H	 -2.355551	 2.819378	 4.079675
H	 -2.880774	 4.025317	 2.939396
H	 -4.676387	 3.551696	 4.593680
H	 -4.674674	 1.857241	 4.140330
H	 -5.203848	 3.071886	 2.991045
C	 4.728119	 -1.109107	 -0.004993
H	 4.882018	 -1.033965	 -1.071845
H	 5.068212	 -2.067527	 0.355250
H	 5.265056	 -0.311663	 0.488280

21 17 14 11 F
17 14 11 15 F
15 11 8 5 F
6 3 5 9 F
2 4 26 27 F
1 2 4 26 F
6 3 2 1 F
