%nprocshared=4
%mem=2GB
#HF/cc-pVTZ nosymm scf=tight opt=ModRedundant

Mol

0 1
H	 -1.835082	 1.385983	 0.000069
C	 -1.300516	 0.441153	 -0.000028
O	 -0.006604	 0.654344	 -0.000106
O	 -1.828920	 -0.612308	 0.000113
C	 0.852093	 -0.482521	 -0.000161
C	 0.149288	 -1.591170	 -0.746929
H	 1.062646	 -0.761200	 1.022563
H	 1.786932	 -0.214092	 -0.471315
H	 -0.786520	 -1.846749	 -0.266394
H	 0.777870	 -2.473441	 -0.765298
H	 -0.058619	 -1.296881	 -1.767780

7 5 3 2 F
