%nprocshared=4
%mem=2GB
#HF/cc-pVTZ nosymm scf=tight opt=ModRedundant

Mol

0 1
H	 3.889604	 0.356866	 -0.089510
N	 3.091268	 -0.241216	 -0.065538
C	 1.860978	 0.530248	 0.016256
H	 3.192566	 -0.835836	 0.730398
C	 0.644130	 -0.381765	 -0.031064
H	 1.835721	 1.204666	 -0.833114
H	 1.808789	 1.151975	 0.911067
C	 -0.678115	 0.376691	 0.025731
H	 0.693998	 -0.977147	 -0.936845
H	 0.693309	 -1.082142	 0.800523
C	 -1.376857	 0.475437	 -1.327492
H	 -0.501434	 1.379007	 0.409267
H	 -1.344465	 -0.106913	 0.736349
C	 -2.695095	 1.239863	 -1.267702
H	 -0.712592	 0.957882	 -2.039033
H	 -1.558002	 -0.524917	 -1.711223
H	 -2.542645	 2.256392	 -0.920330
H	 -3.164254	 1.291420	 -2.243529
H	 -3.394518	 0.762062	 -0.589580

12 8 5 9 F
