%nprocshared=4
%mem=2GB
#HF/cc-pVTZ nosymm scf=tight opt=ModRedundant

Mol

0 1
H	 -3.144994	 -1.202467	 -0.018751
O	 -2.321472	 -0.864941	 -0.318626
C	 -2.021813	 0.336996	 0.342658
C	 -0.669613	 0.837286	 -0.127252
H	 -2.780861	 1.084746	 0.127159
H	 -2.006390	 0.184138	 1.420053
C	 0.490865	 -0.082543	 0.241244
H	 -0.708709	 0.967192	 -1.204587
H	 -0.507562	 1.822272	 0.303070
C	 1.846395	 0.458358	 -0.204370
H	 0.326360	 -1.058416	 -0.201096
H	 0.501357	 -0.230229	 1.319298
C	 3.007533	 -0.456589	 0.170352
H	 1.836994	 0.604121	 -1.281109
H	 2.006353	 1.440197	 0.233917
H	 2.894318	 -1.436034	 -0.282178
H	 3.954737	 -0.046370	 -0.161054
H	 3.065433	 -0.595526	 1.244964

10 7 4 8 F
