%nprocshared=1
%mem=2GB
#HF/6-31G* nosymm scf=tight 

Mol

0 1
H	 -2.646374	 -0.642757	 1.268656
C	 -2.083525	 -0.384536	 0.393091
O	 -0.807605	 -0.127164	 0.768327
F	 -2.118945	 -1.383102	 -0.486752
F	 -2.621877	 0.670592	 -0.209486
C	 0.197125	 -0.376016	 -0.148885
C	 1.293549	 -1.134799	 0.587498
Cl	 0.828136	 1.136829	 -0.819960
H	 -0.140103	 -0.982350	 -0.971327
F	 2.284311	 -1.419672	 -0.230657
F	 0.795604	 -2.269152	 1.037758
F	 1.767245	 -0.456732	 1.604263

10 7 6 9 F
9 6 3 2 F
