%nprocshared=1
%mem=2GB
#HF/6-31G* nosymm scf=tight 

Mol

0 1
H	 2.280918	 2.645621	 -2.624566
N	 1.519897	 1.994839	 -2.654138
C	 1.076142	 1.658336	 -1.309009
H	 1.856095	 1.177748	 -3.127597
C	 -0.143718	 0.744449	 -1.359069
H	 0.810072	 2.584343	 -0.808432
H	 1.856287	 1.188770	 -0.704625
C	 -0.679275	 0.379305	 0.025956
H	 -0.916656	 1.235845	 -1.942961
H	 0.116321	 -0.166983	 -1.896665
C	 -1.903357	 -0.536963	 -0.023547
H	 -0.936561	 1.289928	 0.564862
H	 0.106099	 -0.104837	 0.604438
C	 -3.225172	 0.228290	 0.028445
H	 -1.867824	 -1.134999	 -0.931459
H	 -1.860449	 -1.239604	 0.805977
H	 -3.313397	 0.915643	 -0.808262
H	 -4.073500	 -0.448134	 -0.008893
H	 -3.306061	 0.809945	 0.942516

6 3 5 9 F
12 8 5 9 F
1 2 3 6 F
