%nprocshared=1
%mem=2GB
#HF/6-31G* nosymm scf=tight opt=ModRedundant

Mol

0 1
O	 -0.604898	 -0.015649	 -0.433783
C	 0.486307	 0.169203	 0.000779
C	 1.608116	 -0.841643	 0.000302
O	 0.867389	 1.311124	 0.556118
C	 2.990107	 -0.200498	 -0.000684
H	 1.468623	 -1.481519	 -0.865924
H	 1.469683	 -1.481289	 0.866878
H	 3.129736	 0.423364	 -0.875135
H	 3.757882	 -0.966877	 -0.001197
H	 3.130964	 0.423383	 0.873533
C	 -0.092173	 2.360716	 0.626814
C	 0.576673	 3.542766	 1.295928
H	 -0.950267	 2.016640	 1.187947
H	 -0.424341	 2.602775	 -0.373517
H	 0.908401	 3.282535	 2.294625
H	 -0.122576	 4.369267	 1.370719
H	 1.437199	 3.872003	 0.724654

4 2 3 6 F
