%nprocshared=4
%mem=2GB
#HF/cc-pVTZ nosymm scf=tight opt=ModRedundant

Mol

0 1
H	 2.978815	 -0.182337	 5.417855
C	 2.555647	 -0.967234	 4.801631
C	 1.378222	 -0.450249	 3.982045
H	 3.342916	 -1.342137	 4.156751
H	 2.252586	 -1.776314	 5.458398
C	 0.748830	 -1.533029	 3.108304
H	 1.710587	 0.370654	 3.357073
H	 0.622933	 -0.047811	 4.653168
C	 -0.436560	 -1.045957	 2.280958
H	 1.498546	 -1.942886	 2.442893
H	 0.410008	 -2.347114	 3.742534
C	 -0.069854	 -0.132624	 1.123446
H	 -0.954234	 -1.895566	 1.842844
H	 -1.169474	 -0.546748	 2.907970
C	 -1.180025	 0.697761	 0.509157
O	 1.038315	 -0.080785	 0.696189
C	 -2.285431	 -0.137488	 -0.145671
H	 -0.721117	 1.348366	 -0.222934
H	 -1.612572	 1.321394	 1.287090
C	 -3.646545	 0.082747	 0.508954
H	 -2.348635	 0.118247	 -1.199806
H	 -2.034895	 -1.192387	 -0.096473
C	 -4.757412	 -0.737227	 -0.138149
H	 -3.900211	 1.137405	 0.459735
H	 -3.580878	 -0.166775	 1.564416
H	 -4.867876	 -0.486707	 -1.187777
H	 -4.549650	 -1.800049	 -0.072540
H	 -5.709585	 -0.556397	 0.346597

12 15 17 21 F
