%nprocshared=4
%mem=2GB
#HF/cc-pVTZ nosymm scf=tight opt=ModRedundant

Mol

0 1
O	 3.219313	 0.959291	 -0.614106
C	 2.698710	 0.058177	 -0.050237
C	 1.246364	 -0.005813	 0.348416
O	 3.344101	 -1.038700	 0.312317
C	 0.453207	 1.232821	 -0.049003
H	 0.839270	 -0.907818	 -0.092281
H	 1.216683	 -0.160521	 1.422434
C	 -0.998367	 1.217982	 0.432195
H	 0.481498	 1.345443	 -1.127236
H	 0.951413	 2.105557	 0.354893
C	 -1.882951	 0.151251	 -0.211235
H	 -1.429490	 2.193659	 0.228843
H	 -1.019755	 1.099323	 1.513279
C	 -2.608560	 0.650384	 -1.457889
H	 -1.270761	 -0.708726	 -0.473028
H	 -2.619442	 -0.204801	 0.503149
C	 -3.677122	 1.698464	 -1.160436
H	 -3.067323	 -0.193219	 -1.967996
H	 -1.883192	 1.066875	 -2.153045
C	 -4.398729	 2.190804	 -2.410501
H	 -4.402769	 1.283680	 -0.466094
H	 -3.219713	 2.543570	 -0.653062
H	 -5.149474	 2.932977	 -2.164442
H	 -4.896785	 1.373898	 -2.922080
H	 -3.704206	 2.642800	 -3.110891
C	 4.720529	 -1.114346	 0.001449
H	 4.874321	 -1.055557	 -1.065852
H	 5.057824	 -2.067950	 0.373977
H	 5.264321	 -0.313596	 0.480350

15 11 8 5 F
