%nprocshared=4
%mem=2GB
#HF/cc-pVTZ nosymm scf=tight opt=ModRedundant

Mol

0 1
H	 1.289234	 -2.201773	 -0.517896
C	 0.336354	 -1.711172	 -0.623549
O	 0.462329	 -0.453336	 -0.000137
H	 -0.427085	 -2.309809	 -0.142910
H	 0.106613	 -1.603391	 -1.676089
C	 -0.590565	 0.341382	 0.000062
O	 -1.693898	 -0.053880	 0.000252
H	 -0.340426	 1.403822	 0.000200

2 3 6 7 F
