%nprocshared=4
%mem=2GB
#HF/cc-pVTZ nosymm scf=tight opt=ModRedundant

Mol

0 1
H	 1.583656	 1.086309	 1.091132
C	 0.703793	 1.196416	 0.474344
O	 0.000000	 0.000000	 0.518769
H	 0.109004	 2.023143	 0.857234
H	 1.015122	 1.438246	 -0.539780
C	 -1.165153	 0.000000	 -0.236961
H	 -1.229451	 0.882440	 -0.870223
H	 -2.002557	 0.000000	 0.445289
H	 -1.229451	 -0.882440	 -0.870223

2 3 6 7 F
