%nprocshared=4
%mem=2GB
#HF/cc-pVTZ nosymm scf=tight opt=ModRedundant

Mol

0 1
O	 0.012190	 -0.249540	 0.172118
C	 1.121787	 0.124983	 0.000110
C	 1.535700	 1.553677	 -0.242731
O	 2.167739	 -0.685178	 -0.000678
C	 0.373176	 2.535686	 -0.253575
H	 2.261114	 1.811779	 0.521886
H	 2.077293	 1.575345	 -1.182768
C	 0.827273	 3.971251	 -0.501082
H	 -0.155367	 2.475411	 0.691174
H	 -0.339028	 2.239227	 -1.015429
C	 -0.329785	 4.964224	 -0.511710
H	 1.543183	 4.261431	 0.263449
H	 1.356320	 4.025332	 -1.448932
H	 -0.857905	 4.958694	 0.435731
H	 0.021725	 5.973983	 -0.689204
H	 -1.046054	 4.720987	 -1.289127
C	 3.449556	 -0.089977	 -0.000570
H	 3.585694	 0.522473	 -0.879546
H	 4.155805	 -0.904274	 -0.001389
H	 3.586173	 0.521118	 0.879272

1 2 4 17 F
