%nprocshared=4
%mem=2GB
#HF/cc-pVTZ nosymm scf=tight opt=ModRedundant

Mol

0 1
H	 -2.989258	 2.087378	 0.425204
C	 -2.324435	 2.083571	 1.285947
O	 -0.997564	 1.941636	 0.902790
H	 -2.420143	 3.027059	 1.803207
H	 -2.634850	 1.284346	 1.956594
C	 -0.718530	 0.758693	 0.228682
C	 0.718529	 0.758687	 -0.228709
H	 -0.880083	 -0.096588	 0.884704
H	 -1.368957	 0.645732	 -0.635966
O	 1.401606	 -0.295166	 0.366636
H	 0.748705	 0.673477	 -1.312803
H	 1.176496	 1.708671	 0.046552
C	 2.714315	 -0.441627	 -0.061017
H	 2.765292	 -0.641548	 -1.128869
H	 3.305661	 0.447341	 0.150952
H	 3.143725	 -1.278506	 0.470147

3 6 7 11 F
