%nprocshared=4
%mem=2GB
#HF/6-31G* nosymm scf=tight opt=ModRedundant

Mol

0 1
H	 -3.058441	 0.541952	 -2.140778
C	 -2.366000	 -0.135001	 -1.679346
C	 -2.076860	 -0.007332	 -0.404944
H	 -1.924307	 -0.906849	 -2.281068
O	 -1.180634	 -0.819263	 0.215062
H	 -2.513689	 0.754266	 0.216622
C	 0.051604	 -1.018856	 -0.387932
C	 1.043764	 0.054862	 -0.001873
H	 -0.017620	 -1.041351	 -1.469781
H	 0.437898	 -1.966374	 -0.042284
F	 2.212596	 -0.199467	 -0.571921
F	 0.652529	 1.252447	 -0.405055
F	 1.230877	 0.110694	 1.300533

6 3 5 7 F
