%nprocshared=4
%mem=2GB
#HF/cc-pVTZ nosymm scf=tight opt=ModRedundant

Mol

0 1
O	 -2.817697	 1.304178	 0.001046
C	 -2.664672	 0.129869	 0.003507
C	 -3.797908	 -0.860100	 -0.001145
O	 -1.481217	 -0.452708	 0.001092
H	 -4.408836	 -0.679689	 -0.875387
H	 -3.443486	 -1.878443	 -0.002770
H	 -4.412123	 -0.683688	 0.871605
C	 -0.332055	 0.384012	 -0.000250
C	 0.892252	 -0.506059	 -0.000295
H	 -0.360822	 1.020205	 -0.874146
H	 -0.359817	 1.021310	 0.872861
C	 2.188199	 0.299473	 -0.001416
H	 0.857046	 -1.152781	 -0.871031
H	 0.857910	 -1.151798	 0.871202
C	 2.737655	 0.545810	 -1.403751
H	 2.021601	 1.255000	 0.489696
H	 2.938359	 -0.219843	 0.589807
C	 4.033312	 1.349725	 -1.405246
H	 1.989584	 1.066268	 -1.994995
H	 2.904685	 -0.408348	 -1.895453
H	 3.889969	 2.324040	 -0.950265
H	 4.396157	 1.506572	 -2.414329
H	 4.812071	 0.838139	 -0.849666

16 12 9 13 F
