%nprocshared=1
%mem=2GB
#HF/6-31G* nosymm scf=tight opt=ModRedundant

Mol

0 1
H	 2.216058	 0.500746	 -5.019670
C	 2.585205	 0.870715	 -4.068158
C	 1.441886	 1.081772	 -3.076466
H	 3.301880	 0.148711	 -3.688121
H	 3.118330	 1.798328	 -4.258187
C	 1.927477	 1.610234	 -1.724896
H	 0.916439	 0.143590	 -2.930445
H	 0.723701	 1.782369	 -3.499628
C	 0.802903	 1.848588	 -0.717033
H	 2.641684	 0.915086	 -1.297904
H	 2.453180	 2.549887	 -1.878940
C	 0.169600	 0.576866	 -0.172154
H	 1.189127	 2.395046	 0.142027
H	 0.026965	 2.480896	 -1.142808
C	 -1.181045	 0.701995	 0.511084
O	 0.716776	 -0.481227	 -0.258424
C	 -2.285934	 -0.139295	 -0.145128
H	 -1.449051	 1.751551	 0.493206
H	 -1.071135	 0.403303	 1.551943
C	 -3.651768	 0.085446	 0.506485
H	 -2.346596	 0.110469	 -1.202272
H	 -2.034737	 -1.195320	 -0.088721
C	 -4.759797	 -0.746382	 -0.137905
H	 -3.908762	 1.140117	 0.445781
H	 -3.588286	 -0.154158	 1.565709
H	 -4.868882	 -0.505166	 -1.191300
H	 -4.548009	 -1.809175	 -0.062213
H	 -5.715422	 -0.564821	 0.343442

16 12 15 17 F
