%nprocshared=4
%mem=2GB
#HF/6-31G* nosymm scf=tight opt=ModRedundant

Mol

0 1
H	 -3.161837	 0.500524	 -0.000234
C	 -2.367097	 -0.232926	 -0.000000
O	 -1.158440	 0.455814	 -0.000122
H	 -2.468853	 -0.861886	 -0.882833
H	 -2.468942	 -0.861421	 0.883154
C	 -0.029776	 -0.365156	 0.000148
C	 1.212217	 0.508981	 0.000007
H	 -0.036772	 -1.013236	 -0.877259
H	 -0.036869	 -1.012778	 0.877897
C	 1.202251	 1.538342	 -1.129240
H	 1.281993	 1.008061	 0.961626
H	 2.084393	 -0.132033	 -0.084306
H	 0.349132	 2.206334	 -1.049242
H	 2.099557	 2.147552	 -1.105774
H	 1.156511	 1.058129	 -2.102742

11 7 6 8 F
