%nprocshared=1
%mem=2GB
#HF/6-31G* nosymm scf=tight 

Mol

0 1
O	 0.717782	 -0.049732	 0.642803
C	 1.705091	 0.115954	 0.001797
C	 1.980094	 1.295527	 -0.898674
O	 2.721346	 -0.737485	 -0.000216
C	 0.842103	 2.311164	 -0.931900
H	 2.906198	 1.752752	 -0.561051
H	 2.188280	 0.904844	 -1.891017
C	 1.147551	 3.495227	 -1.850462
H	 0.649890	 2.665886	 0.075778
H	 -0.068477	 1.817481	 -1.256600
C	 0.016780	 4.524415	 -1.895052
H	 2.063634	 3.983872	 -1.521806
H	 1.341716	 3.132803	 -2.858842
C	 0.322041	 5.706653	 -2.813955
H	 -0.176684	 4.889355	 -0.888806
H	 -0.898813	 4.037996	 -2.224025
H	 1.214231	 6.235181	 -2.490120
H	 -0.497826	 6.418101	 -2.824466
H	 0.486827	 5.376962	 -3.835943
C	 4.024888	 -0.184556	 -0.001949
H	 4.179030	 0.422472	 -0.882452
H	 4.701782	 -1.024608	 -0.003642
H	 4.181981	 0.421185	 0.878906

15 11 8 12 F
9 5 8 12 F
1 2 3 6 F
9 5 3 6 F
