%nprocshared=4
%mem=2GB
#HF/cc-pVTZ nosymm scf=tight opt=ModRedundant

Mol

0 1
H	 0.807945	 -1.872950	 0.887224
C	 0.105183	 -1.065763	 1.101756
N	 -0.537714	 -0.645117	 0.000000
O	 -0.041597	 -0.638543	 2.202963
C	 -1.522613	 0.412524	 0.000000
H	 -0.316035	 -1.092449	 -0.854831
H	 -2.150256	 0.356137	 -0.880771
H	 -1.005621	 1.357208	 0.000000
H	 -2.150256	 0.356137	 0.880771

6 3 5 7 F
