%nprocshared=4
%mem=2GB
#HF/cc-pVTZ nosymm scf=tight opt=ModRedundant

Mol

0 1
O	 -2.374409	 1.338660	 -0.336961
C	 -2.104891	 0.204655	 -0.107126
C	 -0.881910	 -0.448129	 -0.720509
C	 -2.949910	 -0.638219	 0.818225
C	 0.390035	 -0.063804	 0.045842
H	 -0.806461	 -0.105362	 -1.744681
H	 -0.995611	 -1.526954	 -0.729070
C	 1.643289	 -0.694524	 -0.557527
H	 0.472051	 1.015778	 0.047971
H	 0.299823	 -0.373154	 1.084333
C	 2.936208	 -0.391968	 0.201900
H	 1.747320	 -0.365121	 -1.588376
H	 1.508414	 -1.772033	 -0.594744
C	 3.363614	 1.073447	 0.174289
H	 3.731296	 -0.994763	 -0.225629
H	 2.831165	 -0.718430	 1.233269
H	 3.470724	 1.428330	 -0.845601
H	 4.318534	 1.203308	 0.670307
H	 2.648282	 1.715371	 0.673802
H	 -3.440322	 -1.417144	 0.243099
H	 -3.694377	 -0.025850	 1.303346
H	 -2.331085	 -1.129829	 1.560495

6 3 2 1 F
