%nprocshared=4
%mem=2GB
#HF/cc-pVTZ nosymm scf=tight opt=ModRedundant

Mol

0 1
H	 -3.144994	 -1.202467	 -0.018751
O	 -2.321472	 -0.864941	 -0.318626
C	 -2.021813	 0.336996	 0.342658
C	 -0.669613	 0.837286	 -0.127252
H	 -2.780861	 1.084746	 0.127159
H	 -2.006390	 0.184138	 1.420053
C	 0.490865	 -0.082543	 0.241244
H	 -0.708709	 0.967192	 -1.204587
H	 -0.507562	 1.822272	 0.303070
C	 0.043670	 -1.343416	 0.975290
H	 1.197321	 0.463766	 0.855675
H	 1.023867	 -0.365646	 -0.664230
C	 1.202062	 -2.266997	 1.337106
H	 -0.486915	 -1.061169	 1.880563
H	 -0.670456	 -1.886004	 0.361033
H	 1.916085	 -1.763770	 1.980417
H	 0.852649	 -3.151042	 1.858334
H	 1.733206	 -2.594953	 0.449539

10 7 4 8 F
