%nprocshared=1
%mem=2GB
#HF/6-31G* nosymm scf=tight 

Mol

0 1
H	 -3.135461	 -1.215070	 0.001379
O	 -2.310168	 -0.871793	 -0.309793
C	 -2.026376	 0.340750	 0.341611
C	 -0.673256	 0.843270	 -0.132153
H	 -2.792215	 1.080697	 0.115987
H	 -2.013526	 0.200402	 1.421792
C	 0.486613	 -0.083066	 0.235839
H	 -0.715586	 0.970948	 -1.210718
H	 -0.508072	 1.829858	 0.297090
C	 1.265848	 -0.576057	 -0.984640
H	 0.101145	 -0.932629	 0.790067
H	 1.165785	 0.442081	 0.906501
C	 2.428536	 -1.497090	 -0.616497
H	 0.588846	 -1.101472	 -1.654956
H	 1.645363	 0.277784	 -1.542643
H	 2.076937	 -2.378176	 -0.087389
H	 2.961141	 -1.832693	 -1.501170
H	 3.142303	 -0.989652	 0.026585

14 10 7 11 F
2 3 4 8 F
1 2 3 4 F
