%nprocshared=4
%mem=2GB
#HF/cc-pVTZ nosymm scf=tight opt=ModRedundant

Mol

0 1
O	 -0.694481	 1.313155	 -0.204815
C	 -0.862519	 0.151932	 -0.046791
C	 -2.171428	 -0.477048	 0.339095
O	 0.085519	 -0.757083	 -0.192238
H	 -2.467997	 -1.191667	 -0.417688
H	 -2.923379	 0.287970	 0.444097
H	 -2.053854	 -1.015120	 1.270901
C	 1.392036	 -0.330828	 -0.560749
C	 1.542019	 -0.220858	 -2.063849
H	 2.118355	 -1.012384	 -0.146311
H	 1.507495	 0.634490	 -0.091087
H	 2.524906	 0.169157	 -2.303167
H	 1.436718	 -1.188669	 -2.534631
H	 0.799320	 0.452621	 -2.474236

10 8 4 2 F
