%nprocshared=4
%mem=2GB
#HF/cc-pVTZ nosymm scf=tight opt=ModRedundant

Mol

0 1
H	 -3.817075	 -2.302848	 -0.154665
C	 -2.746876	 -2.220321	 -0.160808
C	 -1.969101	 -3.346436	 -0.362242
C	 -2.149933	 -0.988967	 0.032605
H	 -2.433137	 -4.301869	 -0.512300
C	 -0.593958	 -3.239594	 -0.370004
H	 -2.753989	 -0.116263	 0.188735
C	 -0.773108	 -0.880363	 0.025105
H	 0.023273	 -4.101110	 -0.524520
C	 0.009121	 -2.006428	 -0.176404
H	 -0.307649	 0.071757	 0.174587
C	 1.498651	 -1.943786	 -0.193624
O	 1.968286	 -0.725612	 -0.000027
O	 2.196404	 -2.886960	 -0.363161
C	 3.373556	 -0.568203	 0.000011
H	 3.695416	 -0.031588	 -0.879663
H	 3.782700	 -1.565294	 -0.000152
H	 3.695405	 -0.031851	 0.879862

12 13 15 16 F
