%nprocshared=1
%mem=2GB
#HF/6-31G* nosymm scf=tight opt=ModRedundant

Mol

0 1
H	 3.815843	 4.741270	 1.659327
C	 3.305117	 3.855227	 1.326353
C	 1.975925	 3.928341	 0.937699
C	 3.977871	 2.644111	 1.287202
H	 1.455343	 4.868240	 0.968543
C	 1.319906	 2.788638	 0.509680
H	 5.008215	 2.589367	 1.588862
C	 3.323210	 1.501954	 0.859102
H	 0.291536	 2.826460	 0.205219
C	 1.991060	 1.571916	 0.468917
H	 3.839927	 0.562642	 0.827205
C	 1.239129	 0.373821	 0.000060
O	 1.970282	 -0.730723	 0.000018
O	 0.098267	 0.395769	 -0.341714
C	 3.377318	 -0.566646	 -0.000065
H	 3.695437	 -0.028981	 -0.881264
H	 3.789299	 -1.563704	 0.000236
H	 3.695516	 -0.028316	 0.880770

10 12 13 15 F
