%nprocshared=4
%mem=2GB
#HF/cc-pVTZ nosymm scf=tight opt=ModRedundant

Mol

0 1
O	 0.395927	 1.296676	 -0.000076
C	 0.503051	 0.114301	 -0.000074
C	 -0.701422	 -0.805636	 -0.000109
C	 1.858118	 -0.556123	 0.000212
C	 -0.859003	 -1.620718	 1.273818
H	 -1.581328	 -0.193424	 -0.180097
H	 -0.618006	 -1.454726	 -0.867960
H	 -0.966189	 -0.976154	 2.135953
H	 -1.735305	 -2.254535	 1.208813
H	 0.005664	 -2.248647	 1.442005
H	 1.961106	 -1.191101	 -0.872843
H	 2.636688	 0.191085	 -0.000109
H	 1.961070	 -1.190284	 0.873873

6 3 2 1 F
