%nprocshared=4
%mem=2GB
#HF/cc-pVTZ nosymm scf=tight opt=ModRedundant

Mol

0 1
H	 1.616058	 -1.768661	 -0.973640
C	 0.729863	 -1.189689	 -1.171834
O	 0.462329	 -0.453336	 -0.000137
H	 -0.087603	 -1.859725	 -1.406401
H	 0.915135	 -0.532124	 -2.011786
C	 -0.590565	 0.341382	 0.000062
O	 -1.693898	 -0.053880	 0.000252
H	 -0.340426	 1.403822	 0.000200

2 3 6 7 F
