%nprocshared=1
%mem=2GB
#HF/6-31G* nosymm scf=tight 

Mol

0 1
O	 0.625848	 1.349995	 -0.000749
C	 0.486307	 0.169203	 0.000779
C	 1.608116	 -0.841643	 0.000302
O	 -0.698257	 -0.426125	 0.001050
C	 2.990107	 -0.200498	 -0.000684
H	 1.468623	 -1.481519	 -0.865924
H	 1.469683	 -1.481289	 0.866878
H	 3.129736	 0.423364	 -0.875135
H	 3.757882	 -0.966877	 -0.001197
H	 3.130964	 0.423383	 0.873533
C	 -1.720195	 0.142692	 0.813141
C	 -2.961627	 -0.706871	 0.641672
H	 -1.889239	 1.164737	 0.502606
H	 -1.385498	 0.158654	 1.841399
H	 -3.280824	 -0.717013	 -0.394266
H	 -3.769344	 -0.306932	 1.246064
H	 -2.774451	 -1.728628	 0.951889

2 4 11 13 F
4 2 3 6 F
