%nprocshared=4
%mem=2GB
#HF/cc-pVTZ nosymm scf=tight 
prop=(read,field)

Mol

0 1
H	 -2.782470	 0.540476	 -0.470781
O	 -2.314149	 -0.142481	 -0.025868
C	 -0.943968	 -0.065024	 -0.330004
H	 -0.812453	 -0.225647	 -1.398677
C	 -0.231190	 -1.182119	 0.407588
C	 -0.353957	 1.300455	 0.050966
H	 -0.312960	 -0.992018	 1.473037
H	 -0.739001	 -2.119570	 0.220510
C	 1.246016	 -1.268050	 -0.015484
H	 -0.539697	 2.008573	 -0.751819
H	 -0.890149	 1.662852	 0.920673
C	 1.153445	 1.231845	 0.356830
H	 1.822936	 -1.684671	 0.802357
H	 1.352175	 -1.958229	 -0.845118
C	 1.826249	 0.100717	 -0.416012
H	 1.622808	 2.181502	 0.128730
H	 1.301823	 1.066487	 1.419363
H	 2.897139	 0.112401	 -0.249669
H	 1.683298	 0.265615	 -1.480028

@grid.dat /N
