%nprocshared=1
%mem=2GB
#HF/6-31G* nosymm scf=tight opt=ModRedundant

Mol

0 1
H	 -3.161837	 0.500524	 -0.000234
C	 -2.367097	 -0.232926	 -0.000000
O	 -1.158440	 0.455814	 -0.000122
H	 -2.468853	 -0.861886	 -0.882833
H	 -2.468942	 -0.861421	 0.883154
C	 -0.029776	 -0.365156	 0.000148
C	 0.776046	 -0.090250	 1.257820
H	 0.575076	 -0.172074	 -0.886854
H	 -0.328277	 -1.413704	 -0.036629
C	 2.037159	 -0.948845	 1.343203
H	 1.037826	 0.963230	 1.275500
H	 0.140866	 -0.269749	 2.119810
H	 2.698887	 -0.766172	 0.501080
H	 2.592207	 -0.732523	 2.249830
H	 1.795601	 -2.008089	 1.350679

8 6 3 2 F
