%nprocshared=4
%mem=2GB
#HF/6-31G* nosymm scf=tight opt=ModRedundant

Mol

0 1
H	 -3.420663	 1.227371	 -1.044276
O	 -3.452007	 0.283848	 -0.965577
C	 -3.181085	 -0.079926	 0.364119
C	 -1.765924	 0.277073	 0.805136
H	 -3.327791	 -1.152017	 0.410903
H	 -3.905698	 0.375695	 1.036898
C	 -0.709015	 0.023533	 -0.270586
H	 -1.741491	 1.325291	 1.104477
H	 -1.530459	 -0.298529	 1.698702
C	 0.704118	 0.406165	 0.174191
H	 -0.973239	 0.575815	 -1.167180
H	 -0.728075	 -1.030008	 -0.544594
C	 1.757337	 0.144012	 -0.905666
H	 0.714031	 1.456456	 0.455632
H	 0.965070	 -0.152926	 1.071925
C	 3.201198	 0.428481	 -0.476133
H	 1.522634	 0.736887	 -1.788337
H	 1.688019	 -0.897225	 -1.213622
C	 3.500352	 1.900693	 -0.187163
H	 3.868344	 0.085834	 -1.263406
H	 3.438990	 -0.167578	 0.402714
H	 3.260041	 2.523143	 -1.045036
H	 4.552771	 2.043104	 0.038600
H	 2.933509	 2.271999	 0.660176

7 4 3 2 F
