%nprocshared=4
%mem=2GB
#HF/cc-pVTZ nosymm scf=tight opt=ModRedundant

Mol

0 1
H	 -2.743672	 0.542512	 0.789770
C	 -2.291204	 1.526062	 0.685910
O	 -0.913544	 1.438758	 0.537681
H	 -2.689628	 2.000222	 -0.199142
H	 -2.563059	 2.123034	 1.554589
C	 -0.256759	 0.853482	 1.613656
C	 1.212205	 0.715815	 1.301344
H	 -0.371696	 1.468800	 2.505925
H	 -0.670258	 -0.129498	 1.828594
O	 1.401606	 -0.295166	 0.366636
H	 1.587924	 1.664384	 0.923873
H	 1.748454	 0.484240	 2.221552
C	 2.714315	 -0.441627	 -0.061017
H	 2.765292	 -0.641548	 -1.128869
H	 3.305661	 0.447341	 0.150952
H	 3.143725	 -1.278506	 0.470147

7 10 13 14 F
