%nprocshared=1
%mem=2GB
#HF/6-31G* nosymm scf=tight 

Mol

0 1
H	 -2.698709	 -0.000305	 0.034435
C	 -1.693833	 0.000034	 0.434417
O	 -0.828952	 -0.000968	 -0.659236
H	 -1.574200	 0.882896	 1.055746
H	 -1.574147	 -0.881698	 1.057355
C	 -1.380943	 -0.002123	 -1.955310
C	 -2.179122	 -1.270500	 -2.250344
C	 -2.176503	 1.267069	 -2.253969
H	 -0.506654	 -0.003937	 -2.595346
H	 -1.603182	 -2.148890	 -1.979658
H	 -2.408229	 -1.326703	 -3.309866
H	 -3.120823	 -1.298217	 -1.711275
H	 -1.599078	 2.144998	 -1.985123
H	 -2.404762	 1.321141	 -3.313893
H	 -3.118414	 1.297931	 -1.715739

9 6 3 2 F
