%nprocshared=1
%mem=2GB
#HF/6-31G* nosymm scf=tight 

Mol

0 1
H	 -3.135461	 -1.215070	 0.001379
O	 -2.310168	 -0.871793	 -0.309793
C	 -2.026376	 0.340750	 0.341611
C	 -0.673256	 0.843270	 -0.132153
H	 -2.792215	 1.080697	 0.115987
H	 -2.013526	 0.200402	 1.421792
C	 0.486613	 -0.083066	 0.235839
H	 -0.715586	 0.970948	 -1.210718
H	 -0.508072	 1.829858	 0.297090
C	 0.036887	 -1.517333	 0.519456
H	 0.999371	 0.316954	 1.104503
H	 1.212188	 -0.089059	 -0.576778
C	 1.196689	 -2.444407	 0.881487
H	 -0.687238	 -1.512894	 1.331453
H	 -0.483208	 -1.913807	 -0.350459
H	 1.715591	 -2.093241	 1.768793
H	 0.847970	 -3.453446	 1.079429
H	 1.922604	 -2.497683	 0.074814

14 10 7 11 F
2 3 4 8 F
1 2 3 4 F
