%nprocshared=1
%mem=2GB
#HF/6-31G* nosymm scf=tight 

Mol

0 1
O	 2.862325	 1.357334	 0.000267
C	 2.843464	 0.164689	 -0.000222
C	 1.546494	 -0.624492	 -0.000609
C	 4.124123	 -0.644674	 -0.000428
C	 0.291004	 0.242674	 0.000989
H	 1.557904	 -1.283758	 -0.867573
H	 1.558622	 -1.285963	 0.864672
C	 -0.542298	 0.065499	 1.271413
H	 -0.309002	 0.001523	 -0.870773
H	 0.577495	 1.283655	 -0.110498
C	 -1.804600	 0.929317	 1.283501
H	 -0.823237	 -0.981200	 1.378844
H	 0.065921	 0.307393	 2.141830
C	 -2.643574	 0.757573	 2.551034
H	 -2.413714	 0.687851	 0.414195
H	 -1.524914	 1.975949	 1.177041
C	 -3.902890	 1.623476	 2.555592
H	 -2.924757	 -0.288056	 2.657896
H	 -2.036214	 1.000119	 3.420599
H	 -4.548268	 1.381076	 1.716022
H	 -4.476601	 1.479381	 3.465973
H	 -3.653410	 2.678447	 2.485303
H	 4.165367	 -1.288615	 -0.874074
H	 4.976217	 0.020734	 -0.001915
H	 4.166763	 -1.286207	 0.874930

9 5 8 12 F
15 11 8 12 F
15 11 14 18 F
1 2 3 6 F
