%nprocshared=4
%mem=2GB
#HF/cc-pVTZ nosymm scf=tight opt=ModRedundant

Mol

0 1
O	 -0.105623	 0.948671	 -1.248612
C	 0.781622	 1.719742	 -1.387478
C	 2.206834	 1.503098	 -0.947617
O	 0.630629	 2.901797	 -1.962250
C	 2.766853	 0.140831	 -1.330932
H	 2.799595	 2.305848	 -1.373851
H	 2.237176	 1.652428	 0.126730
C	 2.614917	 -0.150978	 -2.820825
H	 2.266007	 -0.627053	 -0.752329
H	 3.813156	 0.093080	 -1.051180
C	 1.180151	 -0.478392	 -3.224207
H	 2.960903	 0.705432	 -3.395374
H	 3.261572	 -0.981361	 -3.095669
C	 1.028151	 -0.769565	 -4.713342
H	 0.533541	 0.350720	 -2.951029
H	 0.834102	 -1.334636	 -2.652144
H	 1.334169	 0.081869	 -5.312213
H	 -0.001003	 -0.997608	 -4.965480
H	 1.636798	 -1.617060	 -5.010894
C	 1.774850	 3.725117	 -2.063383
H	 2.168391	 3.953019	 -1.083894
H	 1.449161	 4.628457	 -2.553025
H	 2.542901	 3.240436	 -2.647673

1 2 4 20 F
