%nprocshared=4
%mem=2GB
#HF/6-31G* nosymm scf=tight opt=ModRedundant

Mol

0 1
O	 3.225979	 0.970355	 -0.599647
C	 2.701189	 0.057885	 -0.047330
C	 1.245376	 -0.013843	 0.345420
O	 3.347903	 -1.046386	 0.304773
C	 0.455112	 1.231400	 -0.050772
H	 0.838542	 -0.913825	 -0.103701
H	 1.208210	 -0.175333	 1.419774
C	 -0.998893	 1.219485	 0.433193
H	 0.482531	 1.345121	 -1.130325
H	 0.957290	 2.103070	 0.354729
C	 -1.883438	 0.145884	 -0.207175
H	 -1.431207	 2.195402	 0.224832
H	 -1.019646	 1.105716	 1.516076
C	 -2.957635	 0.730637	 -1.126503
H	 -1.257941	 -0.540256	 -0.776196
H	 -2.367321	 -0.449651	 0.563647
C	 -3.850898	 -0.332756	 -1.767915
H	 -2.480463	 1.317727	 -1.909361
H	 -3.576805	 1.425013	 -0.560668
C	 -4.918485	 0.259215	 -2.687442
H	 -3.233668	 -1.028059	 -2.332913
H	 -4.332121	 -0.917812	 -0.986944
H	 -5.535268	 -0.518776	 -3.126665
H	 -4.467721	 0.821991	 -3.500024
H	 -5.574190	 0.933533	 -2.143731
C	 4.728119	 -1.109107	 -0.004993
H	 4.882018	 -1.033965	 -1.071845
H	 5.068212	 -2.067527	 0.355250
H	 5.265056	 -0.311663	 0.488280

15 11 8 5 F
