%nprocshared=4
%mem=2GB
#HF/cc-pVTZ nosymm scf=tight opt=ModRedundant

Mol

0 1
O	 -2.313297	 -1.673290	 0.699839
C	 -1.562933	 -1.706848	 -0.220627
C	 -0.881910	 -0.448129	 -0.720509
C	 -1.233454	 -3.000437	 -0.926913
C	 0.376695	 -0.140025	 0.100361
H	 -1.587685	 0.367042	 -0.623100
H	 -0.622445	 -0.551620	 -1.768761
C	 1.630207	 -0.772146	 -0.501001
H	 0.486632	 0.935267	 0.162725
H	 0.248225	 -0.501310	 1.117842
C	 2.907848	 -0.545876	 0.309149
H	 1.772784	 -0.391628	 -1.509394
H	 1.468529	 -1.842059	 -0.599744
C	 3.373802	 0.906639	 0.372125
H	 3.699140	 -1.146831	 -0.127906
H	 2.764321	 -0.923458	 1.318191
H	 3.519798	 1.311927	 -0.623875
H	 4.316899	 0.983758	 0.900700
H	 2.661122	 1.540651	 0.885346
H	 -1.640847	 -2.971639	 -1.932497
H	 -1.657042	 -3.835538	 -0.390491
H	 -0.160215	 -3.123467	 -1.019718

6 3 5 8 F
