%nprocshared=4
%mem=2GB
#HF/6-31G* nosymm scf=tight opt=ModRedundant

Mol

0 1
H	 -3.420663	 1.227371	 -1.044276
O	 -3.452007	 0.283848	 -0.965577
C	 -3.181085	 -0.079926	 0.364119
C	 -1.765924	 0.277073	 0.805136
H	 -3.327791	 -1.152017	 0.410903
H	 -3.905698	 0.375695	 1.036898
C	 -0.677594	 -0.417312	 -0.014550
H	 -1.637766	 1.358238	 0.744969
H	 -1.659588	 0.017670	 1.857098
C	 0.738335	 -0.034840	 0.421385
H	 -0.814977	 -0.178223	 -1.064632
H	 -0.802730	 -1.495410	 0.071702
C	 1.822265	 -0.738362	 -0.399735
H	 0.853533	 1.043532	 0.342250
H	 0.871597	 -0.279636	 1.474438
C	 2.726636	 -1.679586	 0.404233
H	 2.436742	 0.008961	 -0.899355
H	 1.342486	 -1.312516	 -1.189657
C	 3.610640	 -0.981624	 1.439506
H	 3.364876	 -2.220293	 -0.290444
H	 2.114303	 -2.430432	 0.899694
H	 4.225793	 -0.215927	 0.974281
H	 4.276439	 -1.692228	 1.919706
H	 3.025294	 -0.506790	 2.219933

17 13 10 7 F
