%nprocshared=1
%mem=2GB
#HF/6-31G* nosymm scf=tight 

Mol

0 1
H	 -1.792477	 -2.676587	 -1.737460
C	 -2.434315	 -1.830542	 -1.462008
C	 -2.353121	 -1.413488	 -0.015604
O	 -3.125645	 -1.314560	 -2.279061
C	 -0.910034	 -1.166473	 0.445632
H	 -2.971627	 -0.534176	 0.122125
H	 -2.784510	 -2.220954	 0.574785
C	 -0.252658	 0.041456	 -0.226725
H	 -0.912852	 -1.022943	 1.522050
H	 -0.313994	 -2.058886	 0.260991
C	 1.180775	 0.282413	 0.250794
H	 -0.853800	 0.927433	 -0.033025
H	 -0.253008	 -0.091883	 -1.306892
C	 2.148627	 -0.814315	 -0.201312
H	 1.516199	 1.249228	 -0.115937
H	 1.192670	 0.346017	 1.338083
C	 3.580890	 -0.659131	 0.322722
H	 2.166869	 -0.852443	 -1.289387
H	 1.762857	 -1.776509	 0.128956
C	 4.324889	 0.564933	 -0.213704
H	 4.142010	 -1.551473	 0.056605
H	 3.564836	 -0.624694	 1.410140
H	 4.342616	 0.565491	 -1.300421
H	 3.866655	 1.493402	 0.110242
H	 5.353900	 0.572371	 0.132816

6 3 5 8 F
6 3 2 4 F
3 5 8 12 F
8 11 14 18 F
20 17 14 18 F
