%nprocshared=1
%mem=2GB
#HF/6-31G* nosymm scf=tight 
prop=(read,field)

Mol

0 1
O	 0.625838	 1.350049	 -0.000749
C	 0.486296	 0.169258	 0.000779
C	 1.608105	 -0.841588	 0.000302
O	 -0.698268	 -0.426071	 0.001050
C	 2.990097	 -0.200444	 -0.000684
H	 1.468612	 -1.481464	 -0.865924
H	 1.469673	 -1.481234	 0.866878
H	 3.129725	 0.423418	 -0.875135
H	 3.757871	 -0.966823	 -0.001197
H	 3.130954	 0.423438	 0.873533
C	 -1.853115	 0.406833	 0.000512
C	 -3.066115	 -0.499222	 -0.000959
H	 -1.828420	 1.043128	 -0.873618
H	 -1.829868	 1.042437	 0.875188
H	 -3.071831	 -1.133051	 -0.880383
H	 -3.972718	 0.097199	 -0.001528
H	 -3.073415	 -1.133758	 0.877999

@grid.dat /N
