%nprocshared=4
%mem=2GB
#HF/cc-pVTZ nosymm scf=tight opt=ModRedundant

Mol

0 1
H	 -0.849462	 2.598975	 2.533825
O	 -0.645909	 3.011550	 1.714528
C	 -0.380350	 2.043974	 0.738098
C	 0.972269	 1.394307	 0.952918
H	 -1.150971	 1.279997	 0.713398
H	 -0.389175	 2.549079	 -0.217136
O	 1.172093	 0.457955	 -0.054438
H	 1.003381	 0.914692	 1.932661
H	 1.748171	 2.156759	 0.938141
C	 2.395478	 -0.199028	 -0.000366
H	 2.505946	 -0.901710	 -0.823354
H	 3.174616	 0.545641	 -0.071768
H	 2.513730	 -0.742241	 0.934223

4 7 10 13 F
