%nprocshared=4
%mem=2GB
#HF/cc-pVTZ nosymm scf=tight opt=ModRedundant

Mol

0 1
O	 -0.127645	 1.021274	 -1.093512
C	 0.781622	 1.719742	 -1.387478
C	 2.238030	 1.400161	 -1.167508
O	 0.630629	 2.901797	 -1.962250
C	 2.629236	 -0.006381	 -1.597530
H	 2.814769	 2.148881	 -1.700649
H	 2.446439	 1.561654	 -0.114926
C	 2.225744	 -0.306339	 -3.038099
H	 2.169363	 -0.725297	 -0.928987
H	 3.699934	 -0.130644	 -1.481539
C	 0.725413	 -0.527905	 -3.206574
H	 2.540252	 0.512811	 -3.681006
H	 2.758499	 -1.187788	 -3.388041
C	 0.322024	 -0.827215	 -4.646402
H	 0.192350	 0.352250	 -2.858253
H	 0.410468	 -1.346920	 -2.566118
H	 0.593003	 -0.010286	 -5.307032
H	 -0.747856	 -0.978836	 -4.730675
H	 0.812536	 -1.723112	 -5.012463
C	 1.774850	 3.725117	 -2.063383
H	 2.168391	 3.953019	 -1.083894
H	 1.449161	 4.628457	 -2.553025
H	 2.542901	 3.240436	 -2.647673

1 2 4 20 F
