%nprocshared=4
%mem=2GB
#HF/cc-pVTZ nosymm scf=tight opt=ModRedundant

Mol

0 1
O	 -1.510770	 1.240811	 -0.054933
C	 -1.081510	 0.147522	 0.122720
C	 0.327029	 -0.064006	 0.641890
C	 -1.903028	 -1.084121	 -0.174656
C	 1.349460	 -0.017068	 -0.500215
H	 0.399029	 -1.014606	 1.159950
H	 0.538021	 0.726928	 1.350471
C	 1.123408	 -1.118615	 -1.529410
H	 1.304980	 0.950101	 -0.992599
H	 2.343736	 -0.105843	 -0.078480
H	 1.864832	 -1.069838	 -2.318043
H	 0.144399	 -1.032983	 -1.988713
H	 1.190009	 -2.099181	 -1.071235
H	 -1.341891	 -1.779207	 -0.789259
H	 -2.820449	 -0.808163	 -0.671328
H	 -2.133314	 -1.593056	 0.755831

9 5 3 2 F
