%nprocshared=4
%mem=2GB
#HF/cc-pVTZ nosymm scf=tight opt=ModRedundant

Mol

0 1
O	 0.393560	 0.772429	 0.886017
C	 0.029490	 0.077183	 0.000078
C	 -1.232113	 -0.748027	 0.000015
O	 0.699925	 -0.067995	 -1.130706
C	 -2.501422	 0.088592	 -0.000052
H	 -1.188777	 -1.400384	 -0.865133
H	 -1.188857	 -1.400312	 0.865225
H	 -2.548170	 0.725504	 -0.873205
H	 -3.371613	 -0.556398	 -0.000040
H	 -2.548215	 0.725571	 0.873047
C	 1.908196	 0.652745	 -1.265821
H	 1.727958	 1.715308	 -1.197197
H	 2.296477	 0.403234	 -2.239888
H	 2.611733	 0.364415	 -0.498913

4 2 3 6 F
