%nprocshared=1
%mem=2GB
#HF/6-31G* nosymm scf=tight 

Mol

0 1
H	 -2.698709	 -0.000305	 0.034435
C	 -1.693833	 0.000034	 0.434417
O	 -0.828952	 -0.000968	 -0.659236
H	 -1.574200	 0.882896	 1.055746
H	 -1.574147	 -0.881698	 1.057355
C	 -1.322442	 -0.425131	 -1.908659
C	 -1.742120	 -1.893724	 -1.904184
C	 -2.420314	 0.490744	 -2.446068
H	 -0.461482	 -0.328121	 -2.559327
H	 -0.959755	 -2.507213	 -1.470495
H	 -1.916818	 -2.232811	 -2.920420
H	 -2.657129	 -2.057991	 -1.343881
H	 -2.107682	 1.527664	 -2.386771
H	 -2.623772	 0.255424	 -3.486114
H	 -3.351218	 0.381289	 -1.899005

9 6 3 2 F
