%nprocshared=1
%mem=2GB
#HF/6-31G* nosymm scf=tight opt=ModRedundant

Mol

0 1
O	 -0.291628	 1.323815	 -0.000732
C	 -0.449655	 0.146360	 0.000961
C	 -1.783294	 -0.549321	 -0.000296
O	 0.550821	 -0.724572	 0.000672
H	 -1.863538	 -1.185371	 -0.874187
H	 -2.574672	 0.185258	 -0.002793
H	 -1.866414	 -1.182381	 0.875436
C	 0.316008	 -1.971535	 -0.628793
H	 -0.497598	 -2.493207	 -0.145824
H	 1.232698	 -2.530877	 -0.526011
H	 0.077978	 -1.830417	 -1.673192

8 4 2 1 F
