%nprocshared=4
%mem=2GB
#HF/cc-pVTZ nosymm scf=tight opt=ModRedundant

Mol

0 1
O	 0.089062	 1.238038	 -0.222788
C	 0.029490	 0.077183	 0.000078
C	 -1.232113	 -0.748027	 0.000015
O	 1.088505	 -0.662175	 0.284804
C	 -2.501422	 0.088592	 -0.000052
H	 -1.188777	 -1.400384	 -0.865133
H	 -1.188857	 -1.400312	 0.865225
H	 -2.548170	 0.725504	 -0.873205
H	 -3.371613	 -0.556398	 -0.000040
H	 -2.548215	 0.725571	 0.873047
C	 2.343298	 -0.012571	 0.318740
H	 2.572977	 0.423379	 -0.642213
H	 3.066045	 -0.773517	 0.564553
H	 2.350069	 0.764333	 1.068819

4 2 3 6 F
