%nprocshared=4
%mem=2GB
#HF/cc-pVTZ nosymm scf=tight opt=ModRedundant

Mol

0 1
H	 3.889604	 0.356866	 -0.089510
N	 3.091268	 -0.241216	 -0.065538
C	 1.860978	 0.530248	 0.016256
H	 3.192566	 -0.835836	 0.730398
C	 0.644130	 -0.381765	 -0.031064
H	 1.835721	 1.204666	 -0.833114
H	 1.808789	 1.151975	 0.911067
C	 -0.678115	 0.376691	 0.025731
H	 0.693998	 -0.977147	 -0.936845
H	 0.693309	 -1.082142	 0.800523
C	 -0.571393	 1.725415	 0.731958
H	 -1.421115	 -0.233651	 0.534049
H	 -1.052038	 0.531689	 -0.983739
C	 -1.896624	 2.477610	 0.792295
H	 -0.197515	 1.572812	 1.740531
H	 0.167717	 2.338705	 0.223664
H	 -2.647925	 1.904666	 1.325702
H	 -1.785778	 3.429273	 1.299300
H	 -2.279957	 2.676185	 -0.203175

12 8 5 9 F
