%nprocshared=1
%mem=2GB
#HF/6-31G* nosymm scf=tight opt=ModRedundant

Mol

0 1
H	 -2.374400	 -0.680992	 3.294810
C	 -2.372442	 -0.746954	 2.224154
C	 -1.232985	 -0.770557	 1.572172
H	 -3.314458	 -0.792374	 1.710875
O	 -1.180634	 -0.819263	 0.215062
H	 -0.278960	 -0.733299	 2.067797
C	 0.051604	 -1.018856	 -0.387932
C	 1.043764	 0.054862	 -0.001873
H	 -0.017620	 -1.041351	 -1.469781
H	 0.437898	 -1.966374	 -0.042284
F	 2.212596	 -0.199467	 -0.571921
F	 0.652529	 1.252447	 -0.405055
F	 1.230877	 0.110694	 1.300533

3 5 7 9 F
