%nprocshared=1
%mem=2GB
#HF/6-31G* nosymm scf=tight 

Mol

0 1
O	 -2.355436	 -0.470642	 1.560497
C	 -1.281533	 -0.176465	 1.990179
C	 -0.019031	 -0.806244	 1.428242
C	 -1.119652	 0.854139	 3.085179
C	 0.379448	 -0.143569	 0.099626
H	 -0.222674	 -1.858331	 1.261068
H	 0.796826	 -0.728689	 2.141256
C	 1.631333	 -0.777471	 -0.511575
H	 -0.459800	 -0.221667	 -0.582245
H	 0.557279	 0.918854	 0.258934
C	 2.915987	 -0.544314	 0.291766
H	 1.766672	 -0.399098	 -1.523130
H	 1.471257	 -1.849544	 -0.605828
C	 3.373361	 0.914346	 0.347591
H	 3.708709	 -1.142521	 -0.150311
H	 2.780642	 -0.921148	 1.303579
H	 3.506512	 1.320010	 -0.651625
H	 4.322697	 0.999599	 0.867103
H	 2.660624	 1.545032	 0.868198
H	 -0.738867	 0.375690	 3.983708
H	 -2.072241	 1.317403	 3.301387
H	 -0.397687	 1.612329	 2.795836

6 3 2 1 F
6 3 5 8 F
12 8 11 15 F
