%nprocshared=4
%mem=2GB
#HF/cc-pVTZ nosymm scf=tight opt=ModRedundant

Mol

0 1
H	 2.342730	 0.877684	 -1.045694
C	 2.360424	 0.000000	 -0.411793
C	 1.173749	 0.000000	 0.526870
H	 3.286567	 0.000000	 0.151574
H	 2.342730	 -0.877684	 -1.045694
O	 -0.000000	 0.000000	 -0.223739
H	 1.203779	 0.876757	 1.172538
H	 1.203779	 -0.876757	 1.172538
C	 -1.173749	 0.000000	 0.526870
C	 -1.216955	 1.251366	 1.376283
H	 -1.212452	 -0.886248	 1.158976
H	 -2.039084	 -0.037367	 -0.133653
H	 -0.366131	 1.285425	 2.045171
H	 -2.123631	 1.272669	 1.970090
H	 -1.193637	 2.135204	 0.751175

11 9 6 3 F
