%nprocshared=1
%mem=2GB
#HF/6-31G* nosymm scf=tight opt=ModRedundant

Mol

0 1
O	 1.426736	 -0.609907	 -1.977596
C	 1.659390	 -0.854792	 -0.837876
C	 1.245376	 -0.013843	 0.345420
O	 2.332888	 -1.930543	 -0.449561
C	 0.455112	 1.231400	 -0.050772
H	 0.681953	 -0.658158	 1.012207
H	 2.150715	 0.252630	 0.884909
C	 -0.998893	 1.219485	 0.433193
H	 0.482531	 1.345121	 -1.130325
H	 0.957290	 2.103070	 0.354729
C	 -1.883438	 0.145884	 -0.207175
H	 -1.431207	 2.195402	 0.224832
H	 -1.019646	 1.105716	 1.516076
C	 -3.347647	 0.245583	 0.225435
H	 -1.822183	 0.231698	 -1.291012
H	 -1.510341	 -0.844814	 0.042401
C	 -4.239992	 -0.825570	 -0.404234
H	 -3.732888	 1.230466	 -0.033079
H	 -3.408585	 0.170602	 1.310038
C	 -5.701275	 -0.716658	 0.029921
H	 -4.179496	 -0.752714	 -1.488058
H	 -3.859041	 -1.810759	 -0.143352
H	 -6.308102	 -1.488908	 -0.432678
H	 -6.122175	 0.245478	 -0.248167
H	 -5.799072	 -0.820114	 1.106957
C	 2.783447	 -2.807922	 -1.465479
H	 1.947834	 -3.200029	 -2.027180
H	 3.300404	 -3.607068	 -0.957417
H	 3.455414	 -2.296116	 -2.139313

6 3 5 9 F
