%nprocshared=4
%mem=2GB
#HF/cc-pVTZ nosymm scf=tight opt=ModRedundant

Mol

0 1
H	 -1.752232	 -2.214755	 -0.011938
C	 -1.343852	 -1.221619	 -0.018179
N	 -0.058800	 -1.097635	 -0.261688
C	 -2.148159	 -0.124236	 0.219734
C	 0.449026	 0.119242	 -0.273393
H	 -3.196988	 -0.237571	 0.417076
N	 -1.655094	 1.094230	 0.209506
C	 -0.370318	 1.215445	 -0.035100
C	 1.924033	 0.265863	 -0.538106
H	 0.033214	 2.210441	 -0.046812
C	 2.384474	 -0.525881	 -1.763089
H	 2.137233	 1.317389	 -0.688442
H	 2.479460	 -0.053039	 0.335975
H	 3.441613	 -0.368506	 -1.940923
H	 1.840747	 -0.213491	 -2.644992
H	 2.221658	 -1.588826	 -1.624572

12 9 5 3 F
