%nprocshared=4
%mem=2GB
#HF/cc-pVTZ nosymm scf=tight opt=ModRedundant

Mol

0 1
H	 -2.429082	 -1.777509	 0.389017
C	 -1.660750	 -1.052006	 0.223951
C	 -1.962645	 0.331676	 0.015537
C	 -0.375541	 -1.413862	 0.205768
H	 -2.986565	 0.655203	 0.024202
C	 -0.983045	 1.217848	 -0.188568
H	 -0.070621	 -2.430829	 0.353901
N	 0.640204	 -0.530428	 -0.000115
H	 -1.171539	 2.259519	 -0.347795
C	 0.417096	 0.819759	 -0.207595
C	 2.006991	 -1.033007	 -0.000020
O	 1.324544	 1.585522	 -0.387558
H	 2.182444	 -1.636914	 -0.880881
H	 2.678769	 -0.195442	 -0.002236
H	 2.183828	 -1.633244	 0.883082

10 8 11 13 F
