%nprocshared=1
%mem=2GB
#HF/6-31G* nosymm scf=tight opt=ModRedundant

Mol

0 1
O	 0.625848	 1.349995	 -0.000749
C	 0.486307	 0.169203	 0.000779
C	 1.608116	 -0.841643	 0.000302
O	 -0.698257	 -0.426125	 0.001050
C	 2.990107	 -0.200498	 -0.000684
H	 1.468623	 -1.481519	 -0.865924
H	 1.469683	 -1.481289	 0.866878
H	 3.129736	 0.423364	 -0.875135
H	 3.757882	 -0.966877	 -0.001197
H	 3.130964	 0.423383	 0.873533
C	 -1.002846	 -1.285533	 -1.092587
C	 -2.393440	 -1.838114	 -0.861909
H	 -0.262620	 -2.072603	 -1.139198
H	 -0.944927	 -0.719735	 -2.012429
H	 -2.436212	 -2.397387	 0.065745
H	 -2.667044	 -2.501584	 -1.675910
H	 -3.122352	 -1.037187	 -0.812308

11 4 2 3 F
