%nprocshared=4
%mem=2GB
#HF/cc-pVTZ nosymm scf=tight opt=ModRedundant

Mol

0 1
H	 -3.436473	 1.252944	 -1.023892
O	 -3.458596	 0.315260	 -0.960865
C	 -3.176635	 -0.080824	 0.355601
C	 -1.763371	 0.265266	 0.799691
H	 -3.321825	 -1.153438	 0.379502
H	 -3.895468	 0.357385	 1.043382
C	 -0.790926	 -0.908892	 0.736241
H	 -1.390927	 1.084428	 0.186402
H	 -1.813175	 0.646757	 1.816732
C	 0.629302	 -0.536277	 1.153472
H	 -0.780806	 -1.310573	 -0.270964
H	 -1.157409	 -1.706361	 1.378300
C	 1.596398	 -1.716981	 1.092565
H	 0.984417	 0.267207	 0.515352
H	 0.615573	 -0.138288	 2.166030
C	 3.014682	 -1.413188	 1.578394
H	 1.640547	 -2.091808	 0.072562
H	 1.193010	 -2.526819	 1.694280
C	 3.789859	 -0.426623	 0.708374
H	 3.568746	 -2.345796	 1.623450
H	 2.971756	 -1.037863	 2.597564
H	 3.844053	 -0.772983	 -0.318843
H	 4.805039	 -0.310131	 1.070425
H	 3.332685	 0.555497	 0.702311

7 4 3 2 F
