%nprocshared=4
%mem=2GB
#HF/cc-pVTZ nosymm scf=tight opt=ModRedundant

Mol

0 1
O	 0.572046	 0.499548	 0.963428
C	 0.029490	 0.077183	 0.000078
C	 -1.232113	 -0.748027	 0.000015
O	 0.472093	 0.280328	 -1.229584
C	 -2.501422	 0.088592	 -0.000052
H	 -1.188777	 -1.400384	 -0.865133
H	 -1.188857	 -1.400312	 0.865225
H	 -2.548170	 0.725504	 -0.873205
H	 -3.371613	 -0.556398	 -0.000040
H	 -2.548215	 0.725571	 0.873047
C	 1.653134	 1.042698	 -1.376463
H	 1.518342	 2.035758	 -0.974098
H	 1.845142	 1.093262	 -2.435898
H	 2.479579	 0.566483	 -0.870050

4 2 3 6 F
