%nprocshared=1
%mem=2GB
#HF/6-31G* nosymm scf=tight 

Mol

0 1
H	 -3.161837	 0.500524	 -0.000234
C	 -2.367097	 -0.232926	 -0.000000
O	 -1.158440	 0.455814	 -0.000122
H	 -2.468853	 -0.861886	 -0.882833
H	 -2.468942	 -0.861421	 0.883154
C	 -0.029776	 -0.365156	 0.000148
C	 1.212217	 0.508981	 0.000007
H	 -0.036772	 -1.013236	 -0.877259
H	 -0.036869	 -1.012778	 0.877897
C	 1.734107	 0.782624	 -1.409827
H	 0.975734	 1.443126	 0.500117
H	 1.977445	 0.020031	 0.595030
H	 0.991025	 1.294163	 -2.015286
H	 2.620236	 1.407715	 -1.380137
H	 1.999236	 -0.139204	 -1.920065

6 3 2 4 F
8 6 3 2 F
