%nprocshared=4
%mem=2GB
#HF/cc-pVTZ nosymm scf=tight opt=ModRedundant

Mol

0 1
H	 -0.366580	 2.045936	 -0.305741
C	 0.351829	 1.335402	 0.083179
N	 -0.000018	 0.000080	 -0.334836
H	 1.327156	 1.599860	 -0.305475
H	 0.380566	 1.445403	 1.171445
C	 1.161292	 -0.774757	 -0.700030
C	 -0.813391	 -0.676279	 0.646593
H	 0.856399	 -1.743983	 -1.073839
H	 1.709684	 -0.271064	 -1.485998
H	 1.844673	 -0.935809	 0.139091
H	 -1.708697	 -0.100756	 0.845042
H	 -1.115991	 -1.645731	 0.271462
H	 -0.292589	 -0.828941	 1.596630

6 3 2 1 F
