%nprocshared=4
%mem=2GB
#HF/6-31G* nosymm scf=tight opt=ModRedundant

Mol

0 1
O	 -0.682937	 1.318834	 -0.186099
C	 -0.860635	 0.152188	 -0.042321
C	 -2.173363	 -0.477127	 0.338347
O	 0.083258	 -0.765189	 -0.202595
H	 -2.477673	 -1.180929	 -0.427595
H	 -2.923125	 0.290956	 0.455536
H	 -2.058825	 -1.029004	 1.264191
C	 1.331185	 -0.577318	 0.460865
C	 1.278642	 -1.070238	 1.895061
H	 1.604314	 0.465933	 0.414297
H	 2.036702	 -1.152924	 -0.120875
H	 2.261109	 -0.984357	 2.349059
H	 0.581536	 -0.483083	 2.479577
H	 0.977149	 -2.111543	 1.929713

8 4 2 1 F
