%nprocshared=4
%mem=2GB
#HF/6-31G* nosymm scf=tight opt=ModRedundant

Mol

0 1
H	 -2.825556	 -0.600416	 0.014903
N	 -1.882491	 -0.449761	 0.316408
C	 -1.296345	 0.685343	 -0.374299
H	 -1.363331	 -1.278043	 0.098390
C	 0.140153	 0.873256	 0.066495
H	 -1.313350	 0.594325	 -1.461234
H	 -1.857223	 1.577607	 -0.113412
O	 0.874168	 -0.245412	 -0.342030
H	 0.555701	 1.776794	 -0.379125
H	 0.180143	 0.976134	 1.148646
C	 2.202317	 -0.244239	 0.074611
H	 2.711377	 -1.041390	 -0.449894
H	 2.692099	 0.699270	 -0.159667
H	 2.283185	 -0.418429	 1.145558

5 8 11 13 F
