%nprocshared=1
%mem=2GB
#HF/6-31G* nosymm scf=tight opt=ModRedundant

Mol

0 1
H	 -2.985796	 2.148375	 -0.589998
C	 -3.102614	 1.116136	 -0.942785
C	 -2.062544	 0.659927	 -1.934117
O	 -3.999649	 0.446673	 -0.544166
C	 -0.630249	 0.899626	 -1.436795
H	 -2.237449	 -0.386369	 -2.156340
H	 -2.223204	 1.227203	 -2.850110
C	 -0.252658	 0.041456	 -0.226725
H	 0.056052	 0.694259	 -2.252944
H	 -0.503997	 1.953437	 -1.193277
C	 1.180775	 0.282413	 0.250794
H	 -0.378804	 -1.008694	 -0.481910
H	 -0.941204	 0.236434	 0.593291
C	 2.148627	 -0.814315	 -0.201312
H	 1.516199	 1.249228	 -0.115937
H	 1.192670	 0.346017	 1.338083
C	 3.580890	 -0.659131	 0.322722
H	 2.166869	 -0.852443	 -1.289387
H	 1.762857	 -1.776509	 0.128956
C	 4.324889	 0.564933	 -0.213704
H	 4.142010	 -1.551473	 0.056605
H	 3.564836	 -0.624694	 1.410140
H	 4.342616	 0.565491	 -1.300421
H	 3.866655	 1.493402	 0.110242
H	 5.353900	 0.572371	 0.132816

12 8 11 14 F
