%nprocshared=4
%mem=2GB
#HF/cc-pVTZ nosymm scf=tight opt=ModRedundant

Mol

0 1
H	 -3.498985	 1.253143	 -1.010443
O	 -3.458596	 0.315260	 -0.960865
C	 -3.176635	 -0.080824	 0.355601
C	 -1.763371	 0.265266	 0.799691
H	 -3.321825	 -1.153438	 0.379502
H	 -3.895468	 0.357385	 1.043382
C	 -1.370480	 1.715773	 0.535139
H	 -1.662742	 0.045076	 1.861413
H	 -1.075320	 -0.401559	 0.285572
C	 -1.249069	 2.044182	 -0.950585
H	 -0.430660	 1.927963	 1.032760
H	 -2.110132	 2.370740	 0.989495
C	 -2.440666	 1.549967	 -1.768445
H	 -1.140004	 3.118272	 -1.066022
H	 -0.337139	 1.600799	 -1.345114
C	 -2.573066	 0.028721	 -1.858614
H	 -2.382550	 1.963866	 -2.772516
H	 -3.351314	 1.948883	 -1.330031
C	 -1.452409	 -0.665008	 -2.629335
H	 -3.519398	 -0.205295	 -2.336595
H	 -2.630588	 -0.386140	 -0.855618
H	 -1.367178	 -0.266110	 -3.635165
H	 -1.644266	 -1.728751	 -2.712292
H	 -0.491380	 -0.545389	 -2.143825

7 4 3 2 F
