%nprocshared=4
%mem=2GB
#HF/cc-pVTZ nosymm scf=tight opt=ModRedundant

Mol

0 1
H	 2.234499	 -4.879904	 1.126510
O	 3.030196	 -4.676954	 0.670980
C	 2.749800	 -4.296154	 -0.650248
C	 2.118878	 -2.916316	 -0.762810
H	 3.699725	 -4.302950	 -1.167527
H	 2.115260	 -5.037416	 -1.132263
C	 0.728105	 -2.809967	 -0.141288
H	 2.783304	 -2.193799	 -0.298414
H	 2.061793	 -2.660144	 -1.818043
C	 0.113298	 -1.420414	 -0.302504
H	 0.786466	 -3.059138	 0.912994
H	 0.070924	 -3.546204	 -0.601022
C	 -1.311023	 -1.277304	 0.237018
H	 0.755275	 -0.687849	 0.180653
H	 0.107279	 -1.166277	 -1.358840
C	 -2.041121	 -0.006551	 -0.194127
H	 -1.888548	 -2.136293	 -0.093331
H	 -1.289731	 -1.328757	 1.323321
C	 -3.489218	 0.042606	 0.286507
H	 -2.022185	 0.066287	 -1.279394
H	 -1.518764	 0.869305	 0.178730
C	 -4.219984	 1.311773	 -0.139038
H	 -4.022855	 -0.824300	 -0.093339
H	 -3.510372	 -0.038577	 1.370031
H	 -4.244251	 1.405725	 -1.219696
H	 -5.244345	 1.313233	 0.215630
H	 -3.732090	 2.196311	 0.257073

14 10 13 16 F
