%nprocshared=4
%mem=2GB
#HF/6-31G* nosymm scf=tight opt=ModRedundant

Mol

0 1
O	 -0.682937	 1.318834	 -0.186099
C	 -0.860635	 0.152188	 -0.042321
C	 -2.173363	 -0.477127	 0.338347
O	 0.083258	 -0.765189	 -0.202595
H	 -2.477673	 -1.180929	 -0.427595
H	 -2.923125	 0.290956	 0.455536
H	 -2.058825	 -1.029004	 1.264191
C	 0.408394	 -1.179386	 -1.527557
C	 1.400258	 -0.233390	 -2.178667
H	 -0.498558	 -1.257110	 -2.107676
H	 0.835118	 -2.164644	 -1.406420
H	 1.685601	 -0.615031	 -3.154198
H	 0.965796	 0.749394	 -2.311879
H	 2.295445	 -0.143200	 -1.572927

8 4 2 1 F
