%nprocshared=4
%mem=2GB
#HF/cc-pVTZ nosymm scf=tight opt=ModRedundant

Mol

0 1
O	 -2.071633	 -1.227563	 -0.223463
C	 -1.652164	 -0.152425	 0.058082
C	 -0.327811	 0.006324	 0.778296
C	 -2.402515	 1.108629	 -0.298924
C	 0.575068	 1.014603	 0.057457
H	 -0.492821	 0.326525	 1.801706
H	 0.152830	 -0.963441	 0.797719
C	 1.927264	 1.189408	 0.742467
H	 0.076664	 1.978928	 -0.000541
H	 0.723041	 0.680058	 -0.963596
C	 2.833417	 2.181864	 0.021995
H	 1.772761	 1.518579	 1.766332
H	 2.423357	 0.225152	 0.802815
H	 2.379021	 3.165978	 -0.023596
H	 3.031726	 1.862618	 -0.995416
H	 3.785851	 2.280977	 0.529387
H	 -3.240910	 0.874416	 -0.936711
H	 -1.747554	 1.818823	 -0.790984
H	 -2.760419	 1.579708	 0.610998

5 3 2 4 F
