%nprocshared=4
%mem=2GB
#HF/6-31G* nosymm scf=tight opt=ModRedundant

Mol

0 1
H	 -3.135461	 -1.215070	 0.001379
O	 -2.310168	 -0.871793	 -0.309793
C	 -2.026376	 0.340750	 0.341611
C	 -0.673256	 0.843270	 -0.132153
H	 -2.792215	 1.080697	 0.115987
H	 -2.013526	 0.200402	 1.421792
C	 0.486613	 -0.083066	 0.235839
H	 -0.715586	 0.970948	 -1.210718
H	 -0.508072	 1.829858	 0.297090
C	 0.226205	 -0.886261	 1.511331
H	 1.389350	 0.507284	 0.354442
H	 0.671932	 -0.770325	 -0.588887
C	 1.382847	 -1.816297	 1.875862
H	 0.041756	 -0.201036	 2.336051
H	 -0.683347	 -1.471971	 1.392579
H	 2.299674	 -1.256034	 2.035310
H	 1.171382	 -2.370938	 2.785038
H	 1.570643	 -2.537121	 1.084877

10 7 4 8 F
