%nprocshared=4
%mem=2GB
#HF/cc-pVTZ nosymm scf=tight opt=ModRedundant

Mol

0 1
H	 -4.000311	 -0.667186	 0.595308
C	 -2.937479	 -0.518895	 0.619241
C	 -2.398967	 0.490763	 1.396568
C	 -2.110891	 -1.337481	 -0.126849
H	 -3.041171	 1.125752	 1.975414
C	 -1.033132	 0.680701	 1.426809
H	 -2.529497	 -2.120192	 -0.729348
C	 -0.743064	 -1.148551	 -0.097617
H	 -0.599435	 1.457503	 2.023084
C	 -0.200185	 -0.138053	 0.679999
H	 -0.100121	 -1.780740	 -0.674237
C	 1.268792	 0.108052	 0.746765
O	 1.968286	 -0.725612	 -0.000027
O	 1.765127	 0.962841	 1.401110
C	 3.373556	 -0.568203	 0.000011
H	 3.695416	 -0.031588	 -0.879663
H	 3.782700	 -1.565294	 -0.000152
H	 3.695405	 -0.031851	 0.879862

12 13 15 16 F
