%nprocshared=1
%mem=2GB
#HF/6-31G* nosymm scf=tight opt=ModRedundant

Mol

0 1
H	 3.089270	 -1.380733	 0.000000
O	 2.178328	 -1.639175	 0.000000
C	 1.368216	 -0.558384	 0.000000
C	 1.846078	 0.729823	 -0.203658
C	 0.017106	 -0.769521	 0.212960
H	 2.897907	 0.891951	 -0.369208
C	 0.973439	 1.805036	 -0.194246
H	 -0.353314	 -1.764044	 0.370400
C	 -0.849767	 0.312388	 0.220850
H	 1.354956	 2.797314	 -0.353014
C	 -0.378392	 1.603263	 0.017825
C	 -2.302523	 0.092638	 0.449062
H	 -1.057994	 2.436982	 0.025540
O	 -2.803094	 -0.970593	 0.632131
H	 -2.913099	 1.000574	 0.439189

4 3 2 1 F
