%nprocshared=4
%mem=2GB
#HF/6-31G* nosymm scf=tight opt=ModRedundant

Mol

0 1
O	 -2.042549	 -1.228399	 -0.269030
C	 -1.653912	 -0.146171	 0.050137
C	 -0.332303	 0.024011	 0.778412
C	 -2.438579	 1.106236	 -0.272369
C	 -0.559208	 0.476044	 2.229637
H	 0.232915	 -0.903732	 0.764153
H	 0.240315	 0.777587	 0.249116
C	 0.749674	 0.689311	 2.991462
H	 -1.163365	 -0.261786	 2.754692
H	 -1.133195	 1.397768	 2.219349
C	 0.527180	 1.147508	 4.432211
H	 1.323648	 -0.234798	 2.989991
H	 1.353171	 1.426008	 2.466451
H	 -0.045390	 0.414584	 4.993494
H	 -0.016587	 2.087031	 4.464739
H	 1.471655	 1.293530	 4.946674
H	 -3.277823	 0.863061	 -0.908988
H	 -1.806773	 1.843019	 -0.759671
H	 -2.802853	 1.554979	 0.648059

5 3 2 4 F
