%nprocshared=1
%mem=2GB
#HF/6-31G* nosymm scf=tight opt=ModRedundant

Mol

0 1
H	 -1.763319	 0.479509	 -2.655570
O	 -1.986710	 0.224302	 -1.771628
C	 -1.021737	 0.715707	 -0.880372
C	 0.266191	 -0.083965	 -0.966582
H	 -0.811684	 1.767058	 -1.056145
H	 -1.436995	 0.624911	 0.113493
O	 1.171513	 0.459272	 -0.058250
H	 0.667427	 -0.039689	 -1.980993
H	 0.062863	 -1.129330	 -0.741963
C	 2.397842	 -0.198080	 -0.002151
H	 2.508049	 -0.905315	 -0.822092
H	 3.173794	 0.550865	 -0.078850
H	 2.517602	 -0.735921	 0.936026

4 7 10 13 F
