%nprocshared=4
%mem=2GB
#HF/cc-pVTZ nosymm scf=tight opt=ModRedundant

Mol

0 1
H	 -1.835082	 1.385983	 0.000069
C	 -1.300516	 0.441153	 -0.000028
O	 -0.006604	 0.654344	 -0.000106
O	 -1.828920	 -0.612308	 0.000113
C	 0.852093	 -0.482521	 -0.000161
C	 2.264273	 0.006295	 -0.218126
H	 0.537957	 -1.157421	 -0.783606
H	 0.749398	 -0.997831	 0.944229
H	 2.351364	 0.523401	 -1.165220
H	 2.944779	 -0.836757	 -0.223523
H	 2.563862	 0.683819	 0.571290

7 5 3 2 F
