%nprocshared=4
%mem=2GB
#HF/cc-pVTZ nosymm scf=tight opt=ModRedundant

Mol

0 1
H	 -3.436473	 1.252944	 -1.023892
O	 -3.458596	 0.315260	 -0.960865
C	 -3.176635	 -0.080824	 0.355601
C	 -1.763371	 0.265266	 0.799691
H	 -3.321825	 -1.153438	 0.379502
H	 -3.895468	 0.357385	 1.043382
C	 -0.673390	 -0.426948	 -0.013392
H	 -1.631049	 1.344913	 0.747560
H	 -1.664587	 -0.001624	 1.849167
C	 0.737842	 -0.043159	 0.423759
H	 -0.806103	 -0.190518	 -1.063345
H	 -0.797221	 -1.503753	 0.074146
C	 0.831070	 1.390953	 0.941137
H	 1.069642	 -0.736365	 1.190743
H	 1.421205	 -0.165249	 -0.414075
C	 2.241295	 1.849602	 1.316313
H	 0.177230	 1.504279	 1.802821
H	 0.443403	 2.060535	 0.178252
C	 2.850567	 1.125246	 2.514328
H	 2.209614	 2.912970	 1.533155
H	 2.895849	 1.736180	 0.456014
H	 2.214251	 1.216429	 3.388893
H	 3.817950	 1.544885	 2.765952
H	 2.995435	 0.069444	 2.319646

13 10 7 11 F
