%nprocshared=1
%mem=2GB
#HF/6-31G* nosymm scf=tight 

Mol

0 1
H	 2.632767	 1.360832	 -1.646776
O	 3.142998	 0.831334	 -2.242064
C	 3.387820	 -0.426540	 -1.665985
C	 2.154060	 -1.321681	 -1.630122
H	 4.154812	 -0.885575	 -2.276464
H	 3.797934	 -0.313067	 -0.663134
C	 1.021261	 -0.785234	 -0.751568
H	 1.795115	 -1.455067	 -2.647341
H	 2.457611	 -2.303108	 -1.269533
C	 -0.180865	 -1.731972	 -0.693275
H	 0.703207	 0.182143	 -1.130237
H	 1.394473	 -0.619236	 0.259124
C	 -1.309753	 -1.282496	 0.241564
H	 -0.578106	 -1.868420	 -1.697481
H	 0.165198	 -2.711171	 -0.369068
C	 -2.037799	 -0.007733	 -0.193645
H	 -2.036145	 -2.089407	 0.312732
H	 -0.911654	 -1.145576	 1.245859
C	 -3.489788	 0.042957	 0.286558
H	 -2.017067	 0.064384	 -1.280144
H	 -1.513726	 0.868678	 0.179924
C	 -4.216917	 1.317354	 -0.141063
H	 -4.025645	 -0.823308	 -0.095450
H	 -3.513059	 -0.038752	 1.371301
H	 -4.239342	 1.411634	 -1.223113
H	 -5.243387	 1.322503	 0.212445
H	 -3.726170	 2.201406	 0.256408

14 10 7 4 F
14 10 13 16 F
10 7 4 8 F
8 4 3 2 F
20 16 19 22 F
4 3 2 1 F
