%nprocshared=1
%mem=2GB
#HF/6-31G* nosymm scf=tight 
prop=(read,field)

Mol

0 1
H	 -2.153115	 -2.250843	 -0.000000
O	 -2.462506	 -1.355514	 0.000000
C	 -1.434321	 -0.483155	 -0.000000
C	 -1.747463	 0.872077	 0.000000
C	 -0.112887	 -0.887783	 -0.000000
H	 -2.781103	 1.162837	 0.000000
C	 -0.737843	 1.812375	 -0.000000
H	 0.142903	 -1.932353	 -0.000000
C	 0.894743	 0.073523	 -0.000000
H	 -0.988073	 2.857342	 0.000000
C	 0.595002	 1.425313	 -0.000000
C	 2.274745	 -0.357858	 -0.000000
H	 1.382437	 2.154372	 -0.000000
N	 3.358400	 -0.699323	 0.000000

@grid.dat /N
