%nprocshared=1
%mem=2GB
#HF/6-31G* nosymm scf=tight 

Mol

0 1
H	 3.729471	 -0.928294	 -0.070608
O	 2.826016	 -1.159218	 0.122261
C	 2.077727	 -0.067559	 -0.035091
C	 0.624473	 -0.343591	 0.253101
O	 2.542965	 0.974826	 -0.363729
C	 -0.265902	 0.883932	 0.072916
H	 0.324016	 -1.163849	 -0.390541
H	 0.565024	 -0.726111	 1.268924
C	 -1.728698	 0.646073	 0.462102
H	 -0.209144	 1.219470	 -0.958188
H	 0.135059	 1.692851	 0.673903
C	 -2.175871	 -0.818167	 0.430558
H	 -2.355923	 1.214511	 -0.220707
H	 -1.912573	 1.057751	 1.453499
C	 -3.666564	 -0.983292	 0.725591
H	 -1.952647	 -1.239726	 -0.547452
H	 -1.607706	 -1.399948	 1.151738
H	 -3.959138	 -2.028292	 0.699309
H	 -4.271525	 -0.451474	 -0.003122
H	 -3.916834	 -0.594442	 1.708646

16 12 9 6 F
7 4 6 10 F
5 3 4 7 F
1 2 3 5 F
