%nprocshared=1
%mem=2GB
#HF/6-31G* nosymm scf=tight 

Mol

0 1
H	 -3.420663	 1.227371	 -1.044276
O	 -3.452007	 0.283848	 -0.965577
C	 -3.181085	 -0.079926	 0.364119
C	 -1.765924	 0.277073	 0.805136
H	 -3.327791	 -1.152017	 0.410903
H	 -3.905698	 0.375695	 1.036898
C	 -0.677594	 -0.417312	 -0.014550
H	 -1.637766	 1.358238	 0.744969
H	 -1.659588	 0.017670	 1.857098
C	 0.738335	 -0.034840	 0.421385
H	 -0.814977	 -0.178223	 -1.064632
H	 -0.802730	 -1.495410	 0.071702
C	 0.780305	 0.591489	 1.817822
H	 1.368629	 -0.920449	 0.392323
H	 1.162011	 0.665134	 -0.297739
C	 2.165803	 1.072895	 2.263690
H	 0.398569	 -0.124027	 2.544465
H	 0.097482	 1.438298	 1.839866
C	 3.194218	 -0.042739	 2.458954
H	 2.057145	 1.613902	 3.200596
H	 2.546222	 1.792295	 1.541229
H	 2.835242	 -0.784362	 3.167665
H	 4.127497	 0.356417	 2.844314
H	 3.419563	 -0.555145	 1.529533

20 16 13 17 F
17 13 10 7 F
11 7 4 3 F
1 2 3 5 F
7 4 3 2 F
