%nprocshared=4
%mem=2GB
#HF/cc-pVTZ nosymm scf=tight opt=ModRedundant

Mol

0 1
H	 0.978715	 -0.890289	 2.023805
C	 0.037535	 -0.980529	 1.501553
O	 -0.000000	 0.000000	 0.518769
H	 -0.030416	 -1.977967	 1.072187
H	 -0.773029	 -0.858831	 2.217116
C	 -1.165153	 0.000000	 -0.236961
H	 -1.229451	 0.882440	 -0.870223
H	 -2.002557	 0.000000	 0.445289
H	 -1.229451	 -0.882440	 -0.870223

2 3 6 7 F
