%nprocshared=4
%mem=2GB
#HF/cc-pVTZ nosymm scf=tight opt=ModRedundant

Mol

0 1
H	 0.836978	 -0.586888	 2.242330
C	 -0.118569	 -0.646375	 1.742227
O	 0.000000	 0.000000	 0.518769
H	 -0.382768	 -1.694218	 1.615428
H	 -0.872306	 -0.175829	 2.370178
C	 -1.165153	 0.000000	 -0.236961
H	 -1.229451	 0.882440	 -0.870223
H	 -2.002557	 0.000000	 0.445289
H	 -1.229451	 -0.882440	 -0.870223

2 3 6 7 F
