%nprocshared=4
%mem=2GB
#HF/cc-pVTZ nosymm scf=tight opt=ModRedundant

Mol

0 1
H	 5.637496	 -4.487831	 2.244277
O	 4.730531	 -4.713314	 2.335942
C	 3.977787	 -3.575042	 2.663026
C	 3.807838	 -2.606219	 1.502342
H	 3.008522	 -3.941128	 2.973646
H	 4.416972	 -3.062034	 3.516483
C	 3.389152	 -3.266297	 0.190532
H	 3.075936	 -1.855042	 1.783782
H	 4.752924	 -2.087999	 1.358613
C	 4.481874	 -4.157778	 -0.397736
H	 3.123273	 -2.498518	 -0.528375
H	 2.493684	 -3.862663	 0.357180
C	 4.089972	 -4.903181	 -1.674858
H	 5.367404	 -3.556980	 -0.590361
H	 4.770822	 -4.889439	 0.351697
C	 3.009841	 -5.968591	 -1.496077
H	 3.739579	 -4.174665	 -2.400817
H	 4.976381	 -5.359304	 -2.110043
C	 3.483501	 -7.168232	 -0.679428
H	 2.679076	 -6.310507	 -2.474421
H	 2.137467	 -5.538923	 -1.013012
C	 4.787405	 -7.768073	 -1.195101
H	 3.610487	 -6.868801	 0.357294
H	 2.710250	 -7.931867	 -0.682378
H	 5.589371	 -7.037552	 -1.174452
H	 5.096164	 -8.614511	 -0.592342
H	 4.682460	 -8.112344	 -2.218729

20 16 19 22 F
