%nprocshared=1
%mem=2GB
#HF/6-31G* nosymm scf=tight 

Mol

0 1
H	 -3.161837	 0.500524	 -0.000234
C	 -2.367097	 -0.232926	 -0.000000
O	 -1.158440	 0.455814	 -0.000122
H	 -2.468853	 -0.861886	 -0.882833
H	 -2.468942	 -0.861421	 0.883154
C	 -0.029776	 -0.365156	 0.000148
C	 1.212217	 0.508981	 0.000007
H	 -0.036772	 -1.013236	 -0.877259
H	 -0.036869	 -1.012778	 0.877897
C	 2.283432	 0.002513	 0.964822
H	 1.606087	 0.547263	 -1.010964
H	 0.920564	 1.521617	 0.261170
H	 2.607246	 -1.001761	 0.705976
H	 3.157519	 0.644707	 0.944684
H	 1.916609	 -0.021174	 1.987213

6 3 2 4 F
8 6 3 2 F
