%nprocshared=1
%mem=2GB
#HF/6-31G* nosymm scf=tight opt=ModRedundant

Mol

0 1
H	 -3.407059	 -1.043082	 0.000000
O	 -3.119761	 -0.140267	 0.000000
C	 -1.777559	 -0.059267	 0.000000
C	 -0.967575	 -1.172414	 -0.204525
C	 -1.213485	 1.192124	 0.214262
H	 -1.412830	 -2.138705	 -0.369869
C	 0.404029	 -1.029547	 -0.193948
H	 -1.859262	 2.035409	 0.369545
C	 0.159938	 1.318951	 0.221996
H	 1.040997	 -1.879787	 -0.350362
C	 0.984284	 0.216695	 0.019236
H	 0.597568	 2.288481	 0.387991
C	 2.452627	 0.367888	 0.030250
O	 3.228285	 -0.522018	 -0.134618
H	 2.810559	 1.387779	 0.205956

5 3 2 1 F
