%nprocshared=1
%mem=2GB
#HF/6-31G* nosymm scf=tight 

Mol

0 1
O	 3.225979	 0.970355	 -0.599647
C	 2.701189	 0.057885	 -0.047330
C	 1.245376	 -0.013843	 0.345420
O	 3.347903	 -1.046386	 0.304773
C	 0.604586	 -1.363517	 0.029375
H	 1.188603	 0.225986	 1.402041
H	 0.731524	 0.793472	 -0.170231
C	 -0.898096	 -1.417647	 0.325199
H	 1.117212	 -2.142832	 0.585255
H	 0.768413	 -1.586896	 -1.019283
C	 -1.268700	 -1.303975	 1.806699
H	 -1.283025	 -2.359899	 -0.057834
H	 -1.406394	 -0.634385	 -0.235284
C	 -2.768116	 -1.473634	 2.059611
H	 -0.721421	 -2.057443	 2.371137
H	 -0.953456	 -0.339713	 2.198865
C	 -3.150796	 -1.356740	 3.536101
H	 -3.089304	 -2.442771	 1.681661
H	 -3.316593	 -0.727279	 1.487049
C	 -4.649307	 -1.531172	 3.780515
H	 -2.602850	 -2.101191	 4.109852
H	 -2.834449	 -0.386955	 3.914551
H	 -4.889065	 -1.443028	 4.835671
H	 -4.990453	 -2.506236	 3.444262
H	 -5.223768	 -0.779138	 3.246930
C	 4.728119	 -1.109107	 -0.004993
H	 4.882018	 -1.033965	 -1.071845
H	 5.068212	 -2.067527	 0.355250
H	 5.265056	 -0.311663	 0.488280

21 17 14 11 F
17 14 11 15 F
15 11 8 5 F
6 3 5 9 F
11 8 5 9 F
2 4 26 27 F
1 2 4 26 F
