%nprocshared=4
%mem=2GB
#HF/cc-pVTZ nosymm scf=tight opt=ModRedundant

Mol

0 1
H	 -2.171709	 0.882708	 0.500286
C	 -2.016894	 0.001719	 -0.114152
O	 -0.775228	 0.000056	 -0.739966
H	 -2.760846	 0.003757	 -0.898169
H	 -2.174774	 -0.879864	 0.498643
C	 -0.317953	 1.162343	 -1.402739
C	 1.050542	 0.762796	 -1.943544
C	 -1.245167	 1.538152	 -2.560185
C	 -0.170718	 2.332019	 -0.427662
H	 0.954680	 -0.081083	 -2.614947
H	 1.703407	 0.473282	 -1.129878
H	 1.510179	 1.583302	 -2.481572
H	 -1.397696	 0.686061	 -3.211602
H	 -0.807380	 2.339241	 -3.143699
H	 -2.211943	 1.880800	 -2.213055
H	 0.433254	 2.039009	 0.422664
H	 0.314038	 3.167621	 -0.918231
H	 -1.128525	 2.681421	 -0.062846

6 3 2 5 F
