%nprocshared=4
%mem=2GB
#HF/cc-pVTZ nosymm scf=tight opt=ModRedundant

Mol

0 1
H	 1.357854	 -1.360862	 0.008286
C	 0.788062	 -0.429851	 0.010289
N	 -0.537714	 -0.645117	 0.000000
O	 1.323820	 0.632964	 0.020573
C	 -1.522613	 0.412524	 0.000000
H	 -0.845867	 -1.585841	 -0.007983
H	 -2.150256	 0.356137	 -0.880771
H	 -1.005621	 1.357208	 0.000000
H	 -2.150256	 0.356137	 0.880771

6 3 5 7 F
