%nprocshared=1
%mem=2GB
#HF/6-31G* nosymm scf=tight 

Mol

0 1
H	 2.465338	 -2.224223	 0.000000
O	 2.784187	 -1.332015	 0.000000
C	 1.765313	 -0.449364	 0.000000
C	 0.877909	 -0.498355	 1.070540
C	 1.584081	 0.477600	 -1.007981
H	 1.040277	 -1.227880	 1.841441
C	 -0.185166	 0.378956	 1.127659
H	 2.252249	 0.537624	 -1.844328
C	 0.506071	 1.343506	 -0.918993
H	 -0.865421	 0.334158	 1.957782
C	 -0.388828	 1.319744	 0.127018
N	 0.318941	 2.322166	 -1.987962
H	 -1.208780	 2.006884	 0.157372
O	 1.108693	 2.322219	 -2.883687
O	 -0.611273	 3.063703	 -1.903774

11 9 12 14 F
