%nprocshared=1
%mem=2GB
#HF/6-31G* nosymm scf=tight 

Mol

0 1
H	 -3.135461	 -1.215070	 0.001379
O	 -2.310168	 -0.871793	 -0.309793
C	 -2.026376	 0.340750	 0.341611
C	 -0.673256	 0.843270	 -0.132153
H	 -2.792215	 1.080697	 0.115987
H	 -2.013526	 0.200402	 1.421792
C	 0.486613	 -0.083066	 0.235839
H	 -0.715586	 0.970948	 -1.210718
H	 -0.508072	 1.829858	 0.297090
C	 0.467305	 -0.507302	 1.705351
H	 1.424329	 0.415162	 0.012298
H	 0.449730	 -0.971152	 -0.394069
C	 1.623073	 -1.437710	 2.071704
H	 0.504923	 0.378730	 2.335628
H	 -0.476830	 -1.000356	 1.928844
H	 2.581786	 -0.959733	 1.891992
H	 1.585103	 -1.720068	 3.119452
H	 1.594134	 -2.349895	 1.482135

14 10 7 11 F
2 3 4 8 F
1 2 3 4 F
