%nprocshared=4
%mem=2GB
#HF/cc-pVTZ nosymm scf=tight opt=ModRedundant

Mol

0 1
H	 -0.997980	 5.541467	 4.830176
C	 -1.767556	 4.780716	 4.767921
C	 -1.682589	 4.017124	 3.450714
H	 -1.641394	 4.112691	 5.612931
H	 -2.728757	 5.272886	 4.875906
C	 -2.760034	 2.942536	 3.322877
H	 -0.703715	 3.559490	 3.365185
H	 -1.775075	 4.717082	 2.623473
C	 -2.703581	 2.165753	 2.011272
H	 -2.677530	 2.246672	 4.148585
H	 -3.737335	 3.410209	 3.400002
C	 -1.534955	 1.201816	 1.894553
H	 -3.602722	 1.565049	 1.899622
H	 -2.693191	 2.840163	 1.160048
C	 -1.180025	 0.697761	 0.509157
O	 -0.930138	 0.835592	 2.850248
C	 -2.285431	 -0.137488	 -0.145671
H	 -0.277347	 0.110086	 0.607399
H	 -0.955003	 1.554612	 -0.120420
C	 -3.646545	 0.082747	 0.508954
H	 -2.348635	 0.118247	 -1.199806
H	 -2.034895	 -1.192387	 -0.096473
C	 -4.757412	 -0.737227	 -0.138149
H	 -3.900211	 1.137405	 0.459735
H	 -3.580878	 -0.166775	 1.564416
H	 -4.867876	 -0.486707	 -1.187777
H	 -4.549650	 -1.800049	 -0.072540
H	 -5.709585	 -0.556397	 0.346597

12 15 17 21 F
