%nprocshared=4
%mem=2GB
#HF/cc-pVTZ nosymm scf=tight opt=ModRedundant

Mol

0 1
O	 -2.374409	 1.338660	 -0.336961
C	 -2.104891	 0.204655	 -0.107126
C	 -0.881910	 -0.448129	 -0.720509
C	 -2.949910	 -0.638219	 0.818225
C	 -1.275278	 -1.656621	 -1.579375
H	 -0.241775	 -0.771764	 0.090416
H	 -0.334258	 0.269427	 -1.322219
C	 -0.062157	 -2.346171	 -2.200153
H	 -1.828541	 -2.349280	 -0.957803
H	 -1.949246	 -1.339490	 -2.371520
C	 -0.399567	 -3.524701	 -3.115100
H	 0.599570	 -2.685684	 -1.407167
H	 0.500321	 -1.613957	 -2.772939
C	 -1.024742	 -4.723533	 -2.405990
H	 0.513491	 -3.847397	 -3.605507
H	 -1.063601	 -3.186040	 -3.906112
H	 -0.384218	 -5.079646	 -1.605677
H	 -1.173193	 -5.543705	 -3.098848
H	 -1.989191	 -4.483848	 -1.975098
H	 -3.440322	 -1.417144	 0.243099
H	 -3.694377	 -0.025850	 1.303346
H	 -2.331085	 -1.129829	 1.560495

6 3 2 1 F
