%nprocshared=4
%mem=2GB
#HF/6-31G* nosymm scf=tight opt=ModRedundant

Mol

0 1
O	 2.992787	 1.137993	 0.354411
C	 2.701189	 0.057885	 -0.047330
C	 1.574967	 -0.251049	 -1.003873
O	 3.347903	 -1.046386	 0.304773
C	 0.807443	 0.992103	 -1.448392
H	 2.008058	 -0.783801	 -1.843990
H	 0.916867	 -0.961118	 -0.509501
C	 -0.403425	 0.685201	 -2.336145
H	 1.483618	 1.664279	 -1.968089
H	 0.474150	 1.526707	 -0.565479
C	 -0.064813	 0.094723	 -3.707928
H	 -0.956415	 1.610059	 -2.482991
H	 -1.077646	 0.011387	 -1.809446
C	 -1.296616	 -0.090687	 -4.596345
H	 0.647165	 0.746486	 -4.212023
H	 0.430940	 -0.866184	 -3.590206
C	 -0.970905	 -0.685004	 -5.967779
H	 -1.791489	 0.869740	 -4.730197
H	 -2.013592	 -0.733687	 -4.088215
C	 -2.205904	 -0.863366	 -6.850200
H	 -0.253793	 -0.044228	 -6.476502
H	 -0.480105	 -1.647066	 -5.836129
H	 -1.942853	 -1.286260	 -7.814861
H	 -2.700113	 0.087297	 -7.029619
H	 -2.928358	 -1.527404	 -6.383952
C	 4.728119	 -1.109107	 -0.004993
H	 4.882018	 -1.033965	 -1.071845
H	 5.068212	 -2.067527	 0.355250
H	 5.265056	 -0.311663	 0.488280

1 2 4 26 F
