%nprocshared=4
%mem=2GB
#HF/cc-pVTZ nosymm scf=tight opt=ModRedundant

Mol

0 1
H	 -3.436473	 1.252944	 -1.023892
O	 -3.458596	 0.315260	 -0.960865
C	 -3.176635	 -0.080824	 0.355601
C	 -1.763371	 0.265266	 0.799691
H	 -3.321825	 -1.153438	 0.379502
H	 -3.895468	 0.357385	 1.043382
C	 -1.698802	 1.372955	 1.847154
H	 -1.284092	 -0.633388	 1.185148
H	 -1.195331	 0.557804	 -0.080161
C	 -0.276559	 1.684561	 2.305516
H	 -2.303435	 1.091880	 2.702332
H	 -2.150637	 2.273326	 1.437663
C	 -0.218512	 2.797454	 3.350096
H	 0.171607	 0.779054	 2.703128
H	 0.325491	 1.970728	 1.445574
C	 1.192008	 3.201896	 3.782192
H	 -0.788323	 2.496641	 4.226267
H	 -0.720328	 3.674436	 2.950467
C	 1.960823	 2.123414	 4.541760
H	 1.118215	 4.083640	 4.411364
H	 1.762672	 3.502141	 2.907197
H	 1.411041	 1.798947	 5.419563
H	 2.921508	 2.499004	 4.875316
H	 2.148792	 1.250587	 3.928208

7 4 3 2 F
