%nprocshared=1
%mem=2GB
#HF/6-31G* nosymm scf=tight opt=ModRedundant

Mol

0 1
O	 -2.042549	 -1.228399	 -0.269030
C	 -1.653912	 -0.146171	 0.050137
C	 -0.332303	 0.024011	 0.778412
C	 -2.438579	 1.106236	 -0.272369
C	 0.845713	 -0.001731	 -0.208243
H	 -0.323783	 0.953829	 1.340327
H	 -0.235459	 -0.796807	 1.480410
C	 1.388900	 1.395005	 -0.513378
H	 0.536985	 -0.477136	 -1.137630
H	 1.634369	 -0.619750	 0.210343
C	 2.566203	 1.371672	 -1.487349
H	 0.591840	 2.011336	 -0.923568
H	 1.696729	 1.869827	 0.415252
H	 2.280102	 0.932726	 -2.438940
H	 3.391929	 0.789073	 -1.089608
H	 2.932360	 2.374558	 -1.682737
H	 -3.277823	 0.863061	 -0.908988
H	 -1.806773	 1.843019	 -0.759671
H	 -2.802853	 1.554979	 0.648059

9 5 3 2 F
