%nprocshared=4
%mem=2GB
#HF/6-31G* nosymm scf=tight opt=ModRedundant

Mol

0 1
O	 -1.276010	 1.052711	 -0.768302
C	 -1.204840	 0.067374	 -0.106123
C	 -2.388195	 -0.672128	 0.458071
O	 -0.067104	 -0.527208	 0.221609
H	 -2.388023	 -1.694060	 0.097175
H	 -3.300579	 -0.174919	 0.164318
H	 -2.315377	 -0.706351	 1.539059
C	 0.889689	 -0.815855	 -0.807545
C	 1.710023	 -1.987372	 -0.297458
C	 1.728760	 0.420521	 -1.090351
H	 0.345512	 -1.099244	 -1.696403
H	 1.073290	 -2.840756	 -0.093609
H	 2.446803	 -2.278685	 -1.038825
H	 2.229685	 -1.722304	 0.617060
H	 2.470224	 0.201993	 -1.852252
H	 1.107875	 1.232650	 -1.446615
H	 2.246200	 0.741235	 -0.191793

8 4 2 1 F
