%nprocshared=1
%mem=2GB
#HF/6-31G* nosymm scf=tight 

Mol

0 1
H	 -3.161837	 0.500524	 -0.000234
C	 -2.367097	 -0.232926	 -0.000000
O	 -1.158440	 0.455814	 -0.000122
H	 -2.468853	 -0.861886	 -0.882833
H	 -2.468942	 -0.861421	 0.883154
C	 -0.029776	 -0.365156	 0.000148
C	 1.212217	 0.508981	 0.000007
H	 -0.036772	 -1.013236	 -0.877259
H	 -0.036869	 -1.012778	 0.877897
C	 1.009412	 1.812390	 -0.771276
H	 1.484074	 0.720952	 1.029484
H	 2.032157	 -0.057870	 -0.430199
H	 0.208066	 2.406878	 -0.341332
H	 1.910723	 2.415908	 -0.755478
H	 0.759309	 1.622530	 -1.811375

6 3 2 4 F
8 6 3 2 F
