%nprocshared=1
%mem=2GB
#HF/6-31G* nosymm scf=tight 

Mol

0 1
O	 1.133136	 1.201442	 0.497105
C	 1.122059	 0.121804	 -0.000188
C	 -0.054870	 -0.508965	 -0.703652
O	 2.172624	 -0.688929	 0.000216
C	 -1.292683	 0.382282	 -0.732623
H	 0.267889	 -0.767212	 -1.708584
H	 -0.261365	 -1.453571	 -0.207835
C	 -2.469596	 -0.280438	 -1.450290
H	 -1.046832	 1.321384	 -1.218574
H	 -1.576574	 0.634452	 0.284391
C	 -3.714434	 0.605182	 -1.482818
H	 -2.179526	 -0.531746	 -2.468514
H	 -2.710070	 -1.222128	 -0.960940
H	 -3.515605	 1.541223	 -1.996578
H	 -4.533481	 0.112295	 -1.997114
H	 -4.050291	 0.845389	 -0.478257
C	 3.452279	 -0.082609	 0.000533
H	 3.583069	 0.529321	 -0.880332
H	 4.163299	 -0.894027	 0.001117
H	 3.582335	 0.529955	 0.881077

9 5 8 12 F
1 2 3 6 F
9 5 3 6 F
