%nprocshared=4
%mem=2GB
#HF/cc-pVTZ nosymm scf=tight opt=ModRedundant

Mol

0 1
H	 6.830139	 -7.991321	 -3.594019
O	 6.919685	 -7.395448	 -2.873778
C	 7.556133	 -6.217560	 -3.294236
C	 8.722338	 -5.808432	 -2.406956
H	 7.915334	 -6.416920	 -4.294841
H	 6.837887	 -5.403068	 -3.366174
C	 9.686264	 -6.945108	 -2.074295
H	 9.261800	 -5.002475	 -2.895394
H	 8.313956	 -5.401720	 -1.484889
C	 9.058822	 -8.007495	 -1.172915
H	 10.568596	 -6.537542	 -1.592232
H	 10.022414	 -7.414070	 -2.997531
C	 9.956458	 -9.207974	 -0.867378
H	 8.747996	 -7.545065	 -0.239227
H	 8.150879	 -8.369776	 -1.647109
C	 10.275856	 -10.098398	 -2.066908
H	 10.890515	 -8.838482	 -0.453204
H	 9.497484	 -9.808988	 -0.085534
C	 9.059417	 -10.861342	 -2.585179
H	 11.051341	 -10.808840	 -1.788765
H	 10.685794	 -9.501991	 -2.876385
C	 7.831670	 -9.976474	 -2.773694
H	 9.309445	 -11.335779	 -3.530152
H	 8.820264	 -11.666229	 -1.895234
H	 8.028697	 -9.179808	 -3.483441
H	 6.988429	 -10.547956	 -3.144449
H	 7.532822	 -9.516410	 -1.837540

4 3 2 1 F
