%nprocshared=4
%mem=2GB
#HF/cc-pVTZ nosymm scf=tight opt=ModRedundant

Mol

0 1
H	 -1.994659	 0.067648	 0.726380
C	 -1.134928	 -0.484965	 0.413308
C	 -1.127789	 -1.865065	 0.410679
C	 0.000000	 0.179985	 0.000046
H	 -2.000437	 -2.400815	 0.728438
C	 -0.000001	 -2.552036	 -0.000013
N	 0.000000	 1.644631	 0.000076
C	 1.134928	 -0.484948	 -0.413243
H	 -0.000000	 -3.625035	 -0.000032
C	 1.127788	 -1.865048	 -0.410673
O	 1.050559	 2.194174	 -0.000073
O	 -1.050559	 2.194174	 -0.000074
H	 1.994657	 0.067677	 -0.726299
H	 2.000438	 -2.400786	 -0.728450

2 4 7 11 F
