%nprocshared=1
%mem=2GB
#HF/6-31G* nosymm scf=tight 

Mol

0 1
O	 0.014739	 0.671346	 0.969913
C	 0.486307	 0.169203	 0.000779
C	 1.608116	 -0.841643	 0.000302
O	 0.080860	 0.439100	 -1.232256
C	 2.990107	 -0.200498	 -0.000684
H	 1.468623	 -1.481519	 -0.865924
H	 1.469683	 -1.481289	 0.866878
H	 3.129736	 0.423364	 -0.875135
H	 3.757882	 -0.966877	 -0.001197
H	 3.130964	 0.423383	 0.873533
C	 -0.975989	 1.380832	 -1.385920
C	 -1.251124	 1.516292	 -2.868574
H	 -0.675438	 2.322645	 -0.947467
H	 -1.845081	 1.026301	 -0.848727
H	 -0.369562	 1.866971	 -3.393009
H	 -2.053785	 2.228143	 -3.031829
H	 -1.545680	 0.563583	 -3.293824

2 4 11 13 F
11 4 2 3 F
