%nprocshared=4
%mem=2GB
#HF/6-31G* nosymm scf=tight opt=ModRedundant

Mol

0 1
O	 3.630739	 0.955172	 1.206909
C	 2.917432	 0.049223	 0.917933
C	 1.433638	 -0.023039	 1.186117
O	 3.347903	 -1.046386	 0.304773
C	 0.888193	 1.222860	 1.880625
H	 0.946515	 -0.204009	 0.233672
H	 1.256428	 -0.913408	 1.784061
C	 -0.594660	 1.121962	 2.254071
H	 1.049171	 2.087734	 1.244074
H	 1.469441	 1.400269	 2.779011
C	 -1.556703	 1.055577	 1.064459
H	 -0.849421	 1.989187	 2.858837
H	 -0.749456	 0.253393	 2.892535
C	 -3.027157	 1.067039	 1.487107
H	 -1.366232	 1.899310	 0.402904
H	 -1.366822	 0.159085	 0.478610
C	 -3.997652	 0.995775	 0.306771
H	 -3.228882	 1.968537	 2.063166
H	 -3.215763	 0.229736	 2.157219
C	 -5.464007	 1.011564	 0.737184
H	 -3.809886	 1.831201	 -0.364384
H	 -3.800445	 0.093110	 -0.267760
H	 -6.126877	 0.959934	 -0.121037
H	 -5.702088	 1.919150	 1.284724
H	 -5.692313	 0.167987	 1.382574
C	 4.728119	 -1.109107	 -0.004993
H	 4.882018	 -1.033965	 -1.071845
H	 5.068212	 -2.067527	 0.355250
H	 5.265056	 -0.311663	 0.488280

2 4 26 27 F
