%nprocshared=4
%mem=2GB
#HF/6-31G* nosymm scf=tight opt=ModRedundant

Mol

0 1
H	 2.601838	 2.161838	 -4.561263
C	 2.950031	 1.977560	 -3.549668
C	 1.790148	 1.992893	 -2.554875
H	 3.455287	 1.016299	 -3.543753
H	 3.685772	 2.740144	 -3.308937
C	 2.247694	 1.742787	 -1.116156
H	 1.063769	 1.238694	 -2.839758
H	 1.282907	 2.954911	 -2.608913
C	 1.110370	 1.770274	 -0.094881
H	 2.751878	 0.784743	 -1.056199
H	 2.975399	 2.501729	 -0.837780
C	 0.169600	 0.576866	 -0.172154
H	 1.521890	 1.775641	 0.913282
H	 0.532553	 2.687796	 -0.181239
C	 -1.181045	 0.701995	 0.511084
O	 0.482010	 -0.430947	 -0.731723
C	 -2.285934	 -0.139295	 -0.145128
H	 -1.449051	 1.751551	 0.493206
H	 -1.071135	 0.403303	 1.551943
C	 -3.651768	 0.085446	 0.506485
H	 -2.346596	 0.110469	 -1.202272
H	 -2.034737	 -1.195320	 -0.088721
C	 -4.759797	 -0.746382	 -0.137905
H	 -3.908762	 1.140117	 0.445781
H	 -3.588286	 -0.154158	 1.565709
H	 -4.868882	 -0.505166	 -1.191300
H	 -4.548009	 -1.809175	 -0.062213
H	 -5.715422	 -0.564821	 0.343442

16 12 15 17 F
