%nprocshared=1
%mem=2GB
#HF/6-31G* nosymm scf=tight 

Mol

0 1
O	 -1.276010	 1.052711	 -0.768302
C	 -1.204840	 0.067374	 -0.106123
C	 -2.388195	 -0.672128	 0.458071
O	 -0.067104	 -0.527208	 0.221609
H	 -2.388023	 -1.694060	 0.097175
H	 -3.300579	 -0.174919	 0.164318
H	 -2.315377	 -0.706351	 1.539059
C	 1.170087	 0.033890	 -0.239320
C	 2.160084	 -1.116683	 -0.280232
C	 1.601736	 1.158305	 0.689128
H	 1.007789	 0.423098	 -1.233646
H	 1.807649	 -1.901803	 -0.939491
H	 3.121672	 -0.769619	 -0.643863
H	 2.299284	 -1.538153	 0.709536
H	 2.549258	 1.571956	 0.358808
H	 0.868844	 1.955063	 0.693814
H	 1.724994	 0.787623	 1.701754

11 8 4 2 F
