%nprocshared=1
%mem=2GB
#HF/6-31G* nosymm scf=tight opt=ModRedundant

Mol

0 1
O	 -0.682937	 1.318834	 -0.186099
C	 -0.860635	 0.152188	 -0.042321
C	 -2.173363	 -0.477127	 0.338347
O	 0.083258	 -0.765189	 -0.202595
H	 -2.477673	 -1.180929	 -0.427595
H	 -2.923125	 0.290956	 0.455536
H	 -2.058825	 -1.029004	 1.264191
C	 1.395325	 -0.479096	 0.276393
C	 1.527638	 -0.789717	 1.755803
H	 1.631170	 0.553766	 0.069719
H	 2.042814	 -1.113262	 -0.311901
H	 2.554246	 -0.634549	 2.073182
H	 0.888497	 -0.143633	 2.344398
H	 1.262169	 -1.822519	 1.953947

8 4 2 1 F
