%nprocshared=1
%mem=2GB
#HF/6-31G* nosymm scf=tight 
prop=(read,field)

Mol

0 1
H	 -3.420860	 1.227396	 -1.044332
O	 -3.452205	 0.283874	 -0.965633
C	 -3.181283	 -0.079901	 0.364063
C	 -1.766122	 0.277099	 0.805080
H	 -3.327989	 -1.151991	 0.410846
H	 -3.905896	 0.375721	 1.036841
C	 -0.677792	 -0.417286	 -0.014606
H	 -1.637964	 1.358264	 0.744913
H	 -1.659786	 0.017696	 1.857042
C	 0.738138	 -0.034815	 0.421329
H	 -0.815175	 -0.178197	 -1.064688
H	 -0.802928	 -1.495384	 0.071646
C	 1.822067	 -0.738336	 -0.399792
H	 0.853336	 1.043557	 0.342194
H	 0.871399	 -0.279611	 1.474382
C	 3.257862	 -0.455748	 0.057147
H	 1.717805	 -0.459141	 -1.447109
H	 1.650831	 -1.811858	 -0.354569
C	 3.708945	 0.994823	 -0.123886
H	 3.930439	 -1.101691	 -0.502038
H	 3.365061	 -0.739493	 1.102231
H	 3.600980	 1.310595	 -1.158184
H	 4.753590	 1.110512	 0.148460
H	 3.135164	 1.678921	 0.492513

@grid.dat /N
