%nprocshared=1
%mem=2GB
#HF/6-31G* nosymm scf=tight opt=ModRedundant

Mol

0 1
O	 -0.988096	 -1.408613	 0.050699
C	 -0.676749	 -0.249230	 -0.009274
C	 -1.746085	 0.827156	 -0.009539
N	 0.623947	 0.147590	 -0.102813
H	 -1.701500	 1.431508	 -0.908902
H	 -2.703425	 0.330732	 0.036390
H	 -1.647323	 1.487769	 0.845106
C	 1.039087	 0.897071	 -1.272349
C	 1.698606	 -0.405156	 0.692061
H	 1.748961	 1.662143	 -0.977796
H	 0.179955	 1.361738	 -1.723920
H	 1.516209	 0.251447	 -2.006479
H	 2.446901	 0.360773	 0.857734
H	 1.349439	 -0.734176	 1.657857
H	 2.181881	 -1.244104	 0.194644

8 4 2 3 F
