%nprocshared=1
%mem=2GB
#HF/6-31G* nosymm scf=tight 

Mol

0 1
O	 0.572374	 1.290832	 -0.384299
C	 0.486307	 0.169203	 0.000779
C	 1.608116	 -0.841643	 0.000302
O	 -0.630760	 -0.351449	 0.489336
C	 2.990107	 -0.200498	 -0.000684
H	 1.468623	 -1.481519	 -0.865924
H	 1.469683	 -1.481289	 0.866878
H	 3.129736	 0.423364	 -0.875135
H	 3.757882	 -0.966877	 -0.001197
H	 3.130964	 0.423383	 0.873533
C	 -1.777440	 0.490490	 0.549878
C	 -2.909742	 -0.326286	 1.135607
H	 -2.010800	 0.840461	 -0.446439
H	 -1.549423	 1.353466	 1.160509
H	 -3.122196	 -1.189670	 0.515454
H	 -3.807639	 0.279768	 1.199868
H	 -2.658417	 -0.673863	 2.131239

2 4 11 13 F
11 4 2 3 F
