%nprocshared=4
%mem=2GB
#HF/cc-pVTZ nosymm scf=tight opt=ModRedundant

Mol

0 1
O	 1.208913	 0.537409	 0.990386
C	 1.704209	 0.119472	 -0.000093
C	 1.286039	 0.472373	 -1.404456
O	 2.715427	 -0.733672	 0.000025
C	 0.123717	 1.452667	 -1.470445
H	 2.161500	 0.866091	 -1.910425
H	 1.045778	 -0.456853	 -1.910672
C	 -0.272884	 1.787127	 -2.905319
H	 0.391248	 2.360222	 -0.941253
H	 -0.725703	 1.035838	 -0.941265
C	 -1.437796	 2.768943	 -2.991840
H	 0.584038	 2.202373	 -3.431158
H	 -0.536917	 0.872352	 -3.431352
C	 -1.833901	 3.103635	 -4.425888
H	 -1.174813	 3.683358	 -2.467585
H	 -2.294750	 2.354510	 -2.468357
H	 -1.006829	 3.552247	 -4.966198
H	 -2.662308	 3.802084	 -4.451269
H	 -2.136002	 2.212954	 -4.966866
C	 4.020999	 -0.192556	 0.000019
H	 4.182809	 0.412891	 -0.879449
H	 4.692590	 -1.035653	 0.000152
H	 4.182726	 0.413087	 0.879368

1 2 4 20 F
