%nprocshared=1
%mem=2GB
#HF/6-31G* nosymm scf=tight opt=ModRedundant

Mol

0 1
H	 -3.654266	 1.363636	 0.002584
C	 -3.055204	 0.564864	 0.394692
C	 -1.953678	 0.208335	 -0.224605
H	 -3.378281	 0.074374	 1.293554
O	 -1.180634	 -0.819263	 0.215062
H	 -1.609032	 0.691433	 -1.121840
C	 0.051604	 -1.018856	 -0.387932
C	 1.043764	 0.054862	 -0.001873
H	 -0.017620	 -1.041351	 -1.469781
H	 0.437898	 -1.966374	 -0.042284
F	 2.212596	 -0.199467	 -0.571921
F	 0.652529	 1.252447	 -0.405055
F	 1.230877	 0.110694	 1.300533

3 5 7 9 F
