%nprocshared=4
%mem=2GB
#HF/cc-pVTZ nosymm scf=tight opt=ModRedundant

Mol

0 1
H	 3.297443	 -0.408278	 -0.000000
C	 2.238662	 -0.232359	 -0.000000
C	 1.361753	 -1.306772	 -0.000000
C	 1.757878	 1.061613	 -0.000000
H	 1.743025	 -2.309481	 0.000000
C	 0.002772	 -1.085475	 0.000000
H	 2.438508	 1.890599	 0.000000
C	 0.392784	 1.282269	 0.000000
H	 -0.690755	 -1.902590	 0.000000
C	 -0.486398	 0.214248	 0.000000
H	 0.011716	 2.286740	 0.000000
C	 -1.946525	 0.470130	 0.000000
O	 -2.779618	 -0.371226	 0.000000
H	 -2.227127	 1.528393	 0.000000

8 10 12 14 F
