%nprocshared=4
%mem=2GB
#HF/cc-pVTZ nosymm scf=tight opt=ModRedundant

Mol

0 1
O	 -1.310046	 2.454385	 0.708862
C	 -1.402956	 1.620354	 -0.132085
C	 -0.169361	 1.004691	 -0.762362
C	 -2.746660	 1.116875	 -0.602975
C	 0.376695	 -0.140025	 0.100361
H	 0.578020	 1.783257	 -0.848194
H	 -0.397874	 0.639572	 -1.758020
C	 1.630207	 -0.772146	 -0.501001
H	 0.585065	 0.249368	 1.088887
H	 -0.386444	 -0.905336	 0.219595
C	 2.907848	 -0.545876	 0.309149
H	 1.772784	 -0.391628	 -1.509394
H	 1.468529	 -1.842059	 -0.599744
C	 3.373802	 0.906639	 0.372125
H	 3.699140	 -1.146831	 -0.127906
H	 2.764321	 -0.923458	 1.318191
H	 3.519798	 1.311927	 -0.623875
H	 4.316899	 0.983758	 0.900700
H	 2.661122	 1.540651	 0.885346
H	 -2.904231	 1.428488	 -1.630626
H	 -3.532606	 1.516661	 0.019143
H	 -2.775851	 0.033112	 -0.589024

3 5 8 12 F
