%nprocshared=1
%mem=2GB
#HF/6-31G* nosymm scf=tight 

Mol

0 1
H	 -3.161837	 0.500524	 -0.000234
C	 -2.367097	 -0.232926	 -0.000000
O	 -1.158440	 0.455814	 -0.000122
H	 -2.468853	 -0.861886	 -0.882833
H	 -2.468942	 -0.861421	 0.883154
C	 -0.029776	 -0.365156	 0.000148
C	 -0.357833	 -1.649757	 -0.740690
H	 0.273752	 -0.585704	 1.024418
H	 0.806122	 0.145714	 -0.479637
C	 0.826155	 -2.614426	 -0.790341
H	 -1.205510	 -2.121396	 -0.253183
H	 -0.676816	 -1.395165	 -1.746738
H	 1.145890	 -2.901318	 0.207600
H	 0.564394	 -3.521521	 -1.324670
H	 1.678723	 -2.169643	 -1.296009

6 3 2 4 F
11 7 6 8 F
