%nprocshared=1
%mem=2GB
#HF/6-31G* nosymm scf=tight 

Mol

0 1
H	 -1.568888	 0.609285	 2.933374
C	 -2.160176	 -0.015864	 2.252794
C	 -2.473526	 0.613779	 0.919388
O	 -2.505356	 -1.102282	 2.587902
C	 -1.220012	 1.144545	 0.209990
H	 -2.997045	 -0.115006	 0.311514
H	 -3.155344	 1.441910	 1.109065
C	 -0.252658	 0.041456	 -0.226725
H	 -1.532576	 1.715253	 -0.659424
H	 -0.705033	 1.846829	 0.863710
C	 1.180775	 0.282413	 0.250794
H	 -0.266029	 -0.034465	 -1.312038
H	 -0.597733	 -0.921000	 0.146291
C	 2.148627	 -0.814315	 -0.201312
H	 1.516199	 1.249228	 -0.115937
H	 1.192670	 0.346017	 1.338083
C	 3.580890	 -0.659131	 0.322722
H	 2.166869	 -0.852443	 -1.289387
H	 1.762857	 -1.776509	 0.128956
C	 4.324889	 0.564933	 -0.213704
H	 4.142010	 -1.551473	 0.056605
H	 3.564836	 -0.624694	 1.410140
H	 4.342616	 0.565491	 -1.300421
H	 3.866655	 1.493402	 0.110242
H	 5.353900	 0.572371	 0.132816

6 3 5 8 F
6 3 2 4 F
12 8 11 14 F
8 11 14 18 F
20 17 14 18 F
