%nprocshared=1
%mem=2GB
#HF/6-31G* nosymm scf=tight 

Mol

0 1
O	 2.862325	 1.357334	 0.000267
C	 2.843464	 0.164689	 -0.000222
C	 1.546494	 -0.624492	 -0.000609
C	 4.124123	 -0.644674	 -0.000428
C	 0.291004	 0.242674	 0.000989
H	 1.557904	 -1.283758	 -0.867573
H	 1.558622	 -1.285963	 0.864672
C	 -0.990048	 -0.580145	 -0.146104
H	 0.358520	 0.967844	 -0.803809
H	 0.256947	 0.817662	 0.920976
C	 -2.255483	 0.279160	 -0.147142
H	 -0.947697	 -1.156882	 -1.068940
H	 -1.050605	 -1.306398	 0.663190
C	 -3.541122	 -0.536661	 -0.294048
H	 -2.196356	 1.005069	 -0.956203
H	 -2.299320	 0.855498	 0.775306
C	 -4.800820	 0.328697	 -0.294456
H	 -3.498986	 -1.112291	 -1.216381
H	 -3.602101	 -1.261630	 0.515001
H	 -4.785860	 1.042302	 -1.113415
H	 -5.695112	 -0.277663	 -0.400615
H	 -4.890338	 0.891030	 0.630700
H	 4.165367	 -1.288615	 -0.874074
H	 4.976217	 0.020734	 -0.001915
H	 4.166763	 -1.286207	 0.874930

9 5 8 12 F
15 11 8 12 F
15 11 14 18 F
1 2 3 6 F
