%nprocshared=4
%mem=2GB
#HF/cc-pVTZ nosymm scf=tight opt=ModRedundant

Mol

0 1
O	 3.304619	 -1.468161	 0.684637
C	 2.574127	 -2.072921	 -0.023620
C	 2.928362	 -2.631908	 -1.378013
O	 1.317782	 -2.342573	 0.292610
C	 4.367963	 -2.353071	 -1.791597
H	 2.713028	 -3.693109	 -1.345789
H	 2.228172	 -2.208352	 -2.091220
C	 5.405806	 -2.816144	 -0.768227
H	 4.487010	 -1.291913	 -1.980912
H	 4.557145	 -2.847363	 -2.736528
C	 5.199664	 -4.231976	 -0.232194
H	 5.385396	 -2.123354	 0.067709
H	 6.400739	 -2.736183	 -1.200656
C	 4.953926	 -5.257730	 -1.335475
H	 6.074944	 -4.526305	 0.342373
H	 4.361018	 -4.252474	 0.457581
C	 3.616735	 -5.075530	 -2.047862
H	 5.000115	 -6.258195	 -0.912064
H	 5.758360	 -5.200031	 -2.065147
C	 3.377748	 -6.104997	 -3.147344
H	 2.811931	 -5.133143	 -1.320063
H	 3.570100	 -4.077001	 -2.474032
H	 2.421216	 -5.947388	 -3.632308
H	 3.383184	 -7.113391	 -2.747068
H	 4.147907	 -6.049531	 -3.909569
C	 0.824678	 -3.623490	 -0.043565
H	 -0.139967	 -3.792406	 0.411591
H	 1.544729	 -4.329140	 0.337866
H	 0.731980	 -3.727573	 -1.114467

1 2 4 26 F
