%nprocshared=4
%mem=2GB
#HF/cc-pVTZ nosymm scf=tight opt=ModRedundant

Mol

0 1
O	 -0.549349	 1.418425	 -2.480338
C	 0.380500	 1.557406	 -1.754049
C	 0.243675	 1.345166	 -0.259297
C	 1.746125	 1.932141	 -2.278844
C	 0.376695	 -0.140025	 0.100361
H	 -0.734709	 1.703810	 0.034384
H	 0.992628	 1.922062	 0.272800
C	 1.630207	 -0.772146	 -0.501001
H	 0.387522	 -0.228459	 1.179384
H	 -0.498756	 -0.681720	 -0.249569
C	 2.907848	 -0.545876	 0.309149
H	 1.772784	 -0.391628	 -1.509394
H	 1.468529	 -1.842059	 -0.599744
C	 3.373802	 0.906639	 0.372125
H	 3.699140	 -1.146831	 -0.127906
H	 2.764321	 -0.923458	 1.318191
H	 3.519798	 1.311927	 -0.623875
H	 4.316899	 0.983758	 0.900700
H	 2.661122	 1.540651	 0.885346
H	 1.996878	 2.931954	 -1.938996
H	 1.749869	 1.906943	 -3.357695
H	 2.503616	 1.261884	 -1.888265

3 5 8 12 F
