%nprocshared=1
%mem=2GB
#HF/6-31G* nosymm scf=tight opt=ModRedundant

Mol

0 1
H	 1.067147	 -1.573042	 -3.896059
O	 1.989860	 -1.364103	 -3.892150
C	 2.160210	 0.029076	 -3.956076
C	 1.802303	 0.738769	 -2.654936
H	 3.206683	 0.187513	 -4.182937
H	 1.583981	 0.445964	 -4.781269
C	 0.327207	 0.616900	 -2.264927
H	 2.424476	 0.335905	 -1.859971
H	 2.062970	 1.790648	 -2.759675
C	 -0.011139	 1.384696	 -0.983978
H	 0.077591	 -0.432539	 -2.135560
H	 -0.294575	 0.989191	 -3.079253
C	 -1.493883	 1.366210	 -0.594786
H	 0.581686	 0.988088	 -0.161721
H	 0.299065	 2.420006	 -1.108900
C	 -2.037799	 -0.007733	 -0.193645
H	 -1.637299	 2.052256	 0.237432
H	 -2.086489	 1.762510	 -1.417952
C	 -3.489788	 0.042957	 0.286558
H	 -1.413751	 -0.424406	 0.595697
H	 -1.969181	 -0.696774	 -1.031987
C	 -4.216917	 1.317354	 -0.141063
H	 -4.025645	 -0.823308	 -0.095450
H	 -3.513059	 -0.038752	 1.371301
H	 -4.239342	 1.411634	 -1.223113
H	 -5.243387	 1.322503	 0.212445
H	 -3.726170	 2.201406	 0.256408

20 16 19 22 F
