%nprocshared=4
%mem=2GB
#HF/6-31G* nosymm scf=tight opt=ModRedundant

Mol

0 1
H	 -0.614725	 -1.487730	 -0.561001
N	 -0.626943	 -0.667432	 -0.000092
C	 -1.814020	 -0.387047	 0.775118
C	 0.469286	 0.129090	 0.000148
H	 -2.680070	 -0.272768	 0.131765
H	 -1.654862	 0.532525	 1.314361
H	 -2.011138	 -1.182527	 1.486024
C	 1.788933	 -0.616240	 -0.000037
O	 0.411098	 1.327768	 -0.000049
H	 1.872803	 -1.245775	 -0.880381
H	 2.595421	 0.101576	 0.003713
H	 1.870096	 -1.252171	 0.875943

3 2 4 9 F
