%nprocshared=4
%mem=2GB
#HF/cc-pVTZ nosymm scf=tight opt=ModRedundant

Mol

0 1
O	 0.687283	 -2.480847	 -3.346590
C	 -0.106064	 -3.277474	 -2.964366
C	 -1.186464	 -2.928214	 -1.961079
C	 -0.089284	 -4.706137	 -3.459206
C	 -1.164619	 -1.481378	 -1.488833
H	 -2.144915	 -3.171345	 -2.414210
H	 -1.084609	 -3.609875	 -1.119670
C	 -2.269138	 -1.176576	 -0.480743
H	 -1.257973	 -0.825847	 -2.347133
H	 -0.196632	 -1.264756	 -1.051557
C	 -2.258482	 0.271340	 0.000669
H	 -3.236832	 -1.398453	 -0.925280
H	 -2.170412	 -1.839059	 0.376363
C	 -2.305585	 1.289336	 -1.135201
H	 -1.367267	 0.443410	 0.599201
H	 -3.104619	 0.434825	 0.663581
C	 -3.572900	 2.137654	 -1.127623
H	 -1.437227	 1.939525	 -1.070796
H	 -2.226298	 0.769809	 -2.086371
H	 -3.663669	 2.697063	 -0.202494
H	 -3.574663	 2.849112	 -1.945453
H	 -4.458537	 1.518747	 -1.225834
H	 -1.034347	 -4.949306	 -3.932252
H	 0.715561	 -4.839570	 -4.165472
H	 0.038984	 -5.388724	 -2.626340

15 11 14 18 F
