%nprocshared=4
%mem=2GB
#HF/cc-pVTZ nosymm scf=tight opt=ModRedundant

Mol

0 1
H	 -3.436473	 1.252944	 -1.023892
O	 -3.458596	 0.315260	 -0.960865
C	 -3.176635	 -0.080824	 0.355601
C	 -1.763371	 0.265266	 0.799691
H	 -3.321825	 -1.153438	 0.379502
H	 -3.895468	 0.357385	 1.043382
C	 -0.673390	 -0.426948	 -0.013392
H	 -1.631049	 1.344913	 0.747560
H	 -1.664587	 -0.001624	 1.849167
C	 0.737842	 -0.043159	 0.423759
H	 -0.806103	 -0.190518	 -1.063345
H	 -0.797221	 -1.503753	 0.074146
C	 0.886741	 1.449863	 0.709698
H	 1.001587	 -0.617855	 1.306399
H	 1.446405	 -0.330508	 -0.350338
C	 0.748854	 2.356679	 -0.514443
H	 1.850008	 1.630088	 1.181383
H	 0.135002	 1.739812	 1.438696
C	 1.858568	 2.202066	 -1.551639
H	 0.730974	 3.388330	 -0.176580
H	 -0.213292	 2.176960	 -0.987091
H	 2.833831	 2.370366	 -1.105977
H	 1.735923	 2.918944	 -2.355558
H	 1.864252	 1.214013	 -1.995851

13 10 7 11 F
