%nprocshared=1
%mem=2GB
#HF/6-31G* nosymm scf=tight opt=ModRedundant

Mol

0 1
O	 -1.276010	 1.052711	 -0.768302
C	 -1.204840	 0.067374	 -0.106123
C	 -2.388195	 -0.672128	 0.458071
O	 -0.067104	 -0.527208	 0.221609
H	 -2.388023	 -1.694060	 0.097175
H	 -3.300579	 -0.174919	 0.164318
H	 -2.315377	 -0.706351	 1.539059
C	 0.376476	 -0.479124	 1.585006
C	 1.885692	 -0.639359	 1.538310
C	 -0.313736	 -1.570218	 2.388603
H	 0.115477	 0.489659	 1.984813
H	 2.336079	 0.147515	 0.943980
H	 2.297940	 -0.590454	 2.540802
H	 2.156541	 -1.594893	 1.102135
H	 0.034937	 -1.553927	 3.416308
H	 -1.386271	 -1.423177	 2.393632
H	 -0.094407	 -2.546707	 1.968637

8 4 2 1 F
