%nprocshared=4
%mem=2GB
#HF/cc-pVTZ nosymm scf=tight opt=ModRedundant

Mol

0 1
O	 3.396429	 -1.786362	 0.778056
C	 2.574127	 -2.072921	 -0.023620
C	 2.798183	 -2.180647	 -1.510403
O	 1.317782	 -2.342573	 0.292610
C	 4.232099	 -1.883283	 -1.930775
H	 2.486819	 -3.175977	 -1.803529
H	 2.101770	 -1.498830	 -1.988383
C	 5.277839	 -2.727615	 -1.201137
H	 4.438947	 -0.829774	 -1.777792
H	 4.321062	 -2.052649	 -2.996800
C	 4.970708	 -4.222797	 -1.133981
H	 5.369079	 -2.347336	 -0.188108
H	 6.250101	 -2.580301	 -1.666200
C	 4.568830	 -4.810548	 -2.484103
H	 5.845474	 -4.749697	 -0.759773
H	 4.173771	 -4.409355	 -0.420101
C	 3.216707	 -4.311773	 -2.985862
H	 4.545016	 -5.895150	 -2.410548
H	 5.332998	 -4.573469	 -3.220789
C	 2.821406	 -4.904741	 -4.334159
H	 2.452075	 -4.548132	 -2.250885
H	 3.239743	 -3.228059	 -3.062605
H	 1.858121	 -4.530323	 -4.661078
H	 2.755045	 -5.986379	 -4.281577
H	 3.549471	 -4.656699	 -5.099407
C	 0.824678	 -3.623490	 -0.043565
H	 -0.139967	 -3.792406	 0.411591
H	 1.544729	 -4.329140	 0.337866
H	 0.731980	 -3.727573	 -1.114467

1 2 4 26 F
