%nprocshared=4
%mem=2GB
#HF/cc-pVTZ nosymm scf=tight opt=ModRedundant

Mol

0 1
O	 0.623971	 1.347241	 -0.000777
C	 0.485107	 0.171416	 -0.000134
C	 1.606966	 -0.836201	 0.000174
O	 -0.695554	 -0.422406	 0.000602
C	 2.988788	 -0.202529	 -0.000115
H	 1.465110	 -1.474645	 -0.864821
H	 1.465209	 -1.474077	 0.865596
H	 3.131767	 0.419673	 -0.873407
H	 3.750876	 -0.972315	 0.000098
H	 3.131883	 0.420264	 0.872742
C	 -1.094332	 -1.103444	 1.181894
C	 -2.464766	 -1.690041	 0.936329
H	 -1.103753	 -0.404386	 2.006259
H	 -0.368568	 -1.871672	 1.408642
H	 -3.182566	 -0.911820	 0.709374
H	 -2.800152	 -2.218353	 1.820996
H	 -2.443203	 -2.387506	 0.108411

11 4 2 3 F
