%nprocshared=1
%mem=2GB
#HF/6-31G* nosymm scf=tight 

Mol

0 1
H	 -3.135461	 -1.215070	 0.001379
O	 -2.310168	 -0.871793	 -0.309793
C	 -2.026376	 0.340750	 0.341611
C	 -0.673256	 0.843270	 -0.132153
H	 -2.792215	 1.080697	 0.115987
H	 -2.013526	 0.200402	 1.421792
C	 0.486613	 -0.083066	 0.235839
H	 -0.715586	 0.970948	 -1.210718
H	 -0.508072	 1.829858	 0.297090
C	 1.409848	 -0.380756	 -0.946884
H	 0.088301	 -1.012092	 0.630517
H	 1.067112	 0.370858	 1.038220
C	 2.572243	 -1.301762	 -0.577753
H	 0.831482	 -0.834916	 -1.748725
H	 1.802422	 0.552805	 -1.345371
H	 2.211693	 -2.257466	 -0.208261
H	 3.208375	 -1.497130	 -1.435722
H	 3.190802	 -0.860480	 0.198884

14 10 7 11 F
2 3 4 8 F
1 2 3 4 F
