%nprocshared=4
%mem=2GB
#HF/cc-pVTZ nosymm scf=tight opt=ModRedundant

Mol

0 1
H	 1.394764	 3.137773	 4.552701
C	 1.369811	 2.574051	 3.639590
C	 0.608820	 3.020001	 2.573915
C	 2.098269	 1.404533	 3.532075
H	 0.043656	 3.927858	 2.658091
C	 0.577259	 2.295077	 1.400892
H	 2.688107	 1.059550	 4.359088
C	 2.067690	 0.677545	 2.358171
H	 -0.006515	 2.625781	 0.566087
C	 1.306412	 1.121361	 1.288594
H	 2.630677	 -0.228593	 2.271620
C	 1.238974	 0.374429	 0.000004
O	 1.968286	 -0.725612	 -0.000027
O	 0.598269	 0.726086	 -0.933277
C	 3.373556	 -0.568203	 0.000011
H	 3.695416	 -0.031588	 -0.879663
H	 3.782700	 -1.565294	 -0.000152
H	 3.695405	 -0.031851	 0.879862

10 12 13 15 F
