%nprocshared=4
%mem=2GB
#HF/6-31G* nosymm scf=tight opt=ModRedundant

Mol

0 1
H	 -2.172150	 0.880146	 0.502514
C	 -2.018062	 -0.000025	 -0.114509
O	 -0.774054	 0.001095	 -0.743181
H	 -2.760490	 0.003458	 -0.901350
H	 -2.173624	 -0.884374	 0.496163
C	 0.196149	 -0.964959	 -0.379892
C	 1.386640	 -0.636612	 -1.278185
C	 0.596456	 -0.819721	 1.091791
C	 -0.301533	 -2.384546	 -0.670067
H	 1.724645	 0.376977	 -1.094276
H	 1.099360	 -0.711584	 -2.320885
H	 2.212861	 -1.316260	 -1.096252
H	 0.878982	 0.205923	 1.304540
H	 1.443033	 -1.460474	 1.316166
H	 -0.207820	 -1.098499	 1.764085
H	 -0.649430	 -2.458336	 -1.695042
H	 0.501831	 -3.100464	 -0.530064
H	 -1.113368	 -2.676020	 -0.012345

6 3 2 5 F
