%nprocshared=1
%mem=2GB
#HF/6-31G* nosymm scf=tight 

Mol

0 1
O	 2.862325	 1.357334	 0.000267
C	 2.843464	 0.164689	 -0.000222
C	 1.546494	 -0.624492	 -0.000609
C	 4.124123	 -0.644674	 -0.000428
C	 0.291004	 0.242674	 0.000989
H	 1.557904	 -1.283758	 -0.867573
H	 1.558622	 -1.285963	 0.864672
C	 -0.970181	 -0.552282	 0.343365
H	 0.180104	 0.709842	 -0.972451
H	 0.419964	 1.054068	 0.710325
C	 -2.235709	 0.306879	 0.346631
H	 -1.091511	 -1.366387	 -0.369769
H	 -0.851553	 -1.019418	 1.319980
C	 -3.501555	 -0.481185	 0.688105
H	 -2.355684	 0.773790	 -0.629391
H	 -2.115899	 1.120532	 1.059801
C	 -4.761509	 0.383800	 0.689145
H	 -3.623031	 -1.294079	 -0.024825
H	 -3.383425	 -0.947146	 1.664211
H	 -4.926363	 0.837354	 -0.284129
H	 -5.641694	 -0.202783	 0.933881
H	 -4.685564	 1.186054	 1.417681
H	 4.165367	 -1.288615	 -0.874074
H	 4.976217	 0.020734	 -0.001915
H	 4.166763	 -1.286207	 0.874930

9 5 8 12 F
15 11 8 12 F
15 11 14 18 F
1 2 3 6 F
