%nprocshared=1
%mem=2GB
#HF/6-31G* nosymm scf=tight 

Mol

0 1
H	 -2.646374	 -0.642757	 1.268656
C	 -2.083525	 -0.384536	 0.393091
O	 -0.807605	 -0.127164	 0.768327
F	 -2.118945	 -1.383102	 -0.486752
F	 -2.621877	 0.670592	 -0.209486
C	 0.091243	 0.244859	 -0.214708
C	 1.353689	 -0.579400	 0.002058
Cl	 0.452248	 1.976172	 -0.117523
H	 -0.278324	 0.043563	 -1.204998
F	 2.255778	 -0.286967	 -0.910552
F	 1.051696	 -1.857043	 -0.115699
F	 1.874699	 -0.383607	 1.188729

10 7 6 9 F
9 6 3 2 F
