%nprocshared=4
%mem=2GB
#HF/cc-pVTZ nosymm scf=tight opt=ModRedundant

Mol

0 1
O	 -2.071633	 -1.227563	 -0.223463
C	 -1.652164	 -0.152425	 0.058082
C	 -0.327811	 0.006324	 0.778296
C	 -2.402515	 1.108629	 -0.298924
C	 0.844976	 -0.377540	 -0.132004
H	 -0.207302	 1.028318	 1.121996
H	 -0.345176	 -0.644477	 1.643162
C	 0.878701	 -1.869095	 -0.451936
H	 1.783248	 -0.091345	 0.336431
H	 0.771213	 0.192118	 -1.052011
C	 2.036124	 -2.253518	 -1.367224
H	 0.946425	 -2.434743	 0.473255
H	 -0.060125	 -2.154988	 -0.917135
H	 2.991566	 -2.011646	 -0.913722
H	 1.977440	 -1.726959	 -2.313617
H	 2.030554	 -3.316330	 -1.578886
H	 -3.240910	 0.874416	 -0.936711
H	 -1.747554	 1.818823	 -0.790984
H	 -2.760419	 1.579708	 0.610998

5 3 2 4 F
