%nprocshared=1
%mem=2GB
#HF/6-31G* nosymm scf=tight opt=ModRedundant

Mol

0 1
O	 -0.988096	 -1.408613	 0.050699
C	 -0.676749	 -0.249230	 -0.009274
C	 -1.746085	 0.827156	 -0.009539
N	 0.623947	 0.147590	 -0.102813
H	 -1.701500	 1.431508	 -0.908902
H	 -2.703425	 0.330732	 0.036390
H	 -1.647323	 1.487769	 0.845106
C	 1.224495	 0.831092	 1.025922
C	 1.351128	 0.252740	 -1.348765
H	 2.253407	 0.507488	 1.138337
H	 0.675972	 0.595108	 1.921117
H	 1.218182	 1.909583	 0.883657
H	 2.398373	 0.042655	 -1.166607
H	 0.997319	 -0.460237	 -2.076376
H	 1.279004	 1.250267	 -1.778360

8 4 2 3 F
