%nprocshared=4
%mem=2GB
#HF/6-31G* nosymm scf=tight opt=ModRedundant

Mol

0 1
O	 -2.042549	 -1.228399	 -0.269030
C	 -1.653912	 -0.146171	 0.050137
C	 -0.332303	 0.024011	 0.778412
C	 -2.438579	 1.106236	 -0.272369
C	 0.845713	 -0.001731	 -0.208243
H	 -0.323783	 0.953829	 1.340327
H	 -0.235459	 -0.796807	 1.480410
C	 0.547241	 -0.827769	 -1.460284
H	 1.729419	 -0.403829	 0.284163
H	 1.083956	 1.019652	 -0.489594
C	 1.713701	 -0.847722	 -2.447290
H	 0.300474	 -1.846945	 -1.170780
H	 -0.335853	 -0.426177	 -1.951644
H	 2.603668	 -1.276019	 -1.994992
H	 1.962314	 0.155750	 -2.779973
H	 1.472837	 -1.437730	 -3.325870
H	 -3.277823	 0.863061	 -0.908988
H	 -1.806773	 1.843019	 -0.759671
H	 -2.802853	 1.554979	 0.648059

9 5 3 2 F
