%nprocshared=4
%mem=2GB
#HF/6-31G* nosymm scf=tight opt=ModRedundant

Mol

0 1
O	 -0.988096	 -1.408613	 0.050699
C	 -0.676749	 -0.249230	 -0.009274
C	 -1.746085	 0.827156	 -0.009539
N	 0.623947	 0.147590	 -0.102813
H	 -1.701500	 1.431508	 -0.908902
H	 -2.703425	 0.330732	 0.036390
H	 -1.647323	 1.487769	 0.845106
C	 1.216786	 0.279994	 -1.419205
C	 1.561446	 0.116606	 0.998269
H	 1.874916	 1.141775	 -1.433901
H	 0.438992	 0.411991	 -2.151021
H	 1.799612	 -0.600632	 -1.680417
H	 2.277429	 0.920742	 0.876723
H	 1.066455	 0.261164	 1.945381
H	 2.113259	 -0.820894	 1.035801

8 4 2 3 F
