%nprocshared=4
%mem=2GB
#HF/cc-pVTZ nosymm scf=tight 
prop=(read,field)

Mol

0 1
H	 2.342730	 0.877684	 -1.045712
C	 2.360424	 -0.000000	 -0.411811
C	 1.173749	 -0.000000	 0.526852
H	 3.286567	 -0.000000	 0.151556
H	 2.342730	 -0.877684	 -1.045712
O	 0.000000	 0.000000	 -0.223757
H	 1.203779	 0.876757	 1.172520
H	 1.203779	 -0.876757	 1.172520
C	 -1.173749	 0.000000	 0.526852
C	 -2.360424	 -0.000000	 -0.411811
H	 -1.203779	 0.876757	 1.172520
H	 -1.203779	 -0.876757	 1.172520
H	 -2.342730	 0.877684	 -1.045712
H	 -3.286567	 -0.000000	 0.151556
H	 -2.342730	 -0.877684	 -1.045712

@grid.dat /N
