%nprocshared=4
%mem=2GB
#HF/6-31G* nosymm scf=tight opt=ModRedundant

Mol

0 1
H	 -3.420663	 1.227371	 -1.044276
O	 -3.452007	 0.283848	 -0.965577
C	 -3.181085	 -0.079926	 0.364119
C	 -1.765924	 0.277073	 0.805136
H	 -3.327791	 -1.152017	 0.410903
H	 -3.905698	 0.375695	 1.036898
C	 -0.677594	 -0.417312	 -0.014550
H	 -1.637766	 1.358238	 0.744969
H	 -1.659588	 0.017670	 1.857098
C	 -0.028044	 0.502006	 -1.050947
H	 -1.103014	 -1.284877	 -0.509584
H	 0.087321	 -0.796301	 0.661220
C	 1.064374	 -0.198407	 -1.863431
H	 -0.798282	 0.884645	 -1.716332
H	 0.399652	 1.368831	 -0.548656
C	 1.806260	 0.705832	 -2.854447
H	 0.629061	 -1.038846	 -2.401818
H	 1.791045	 -0.624281	 -1.174666
C	 0.942946	 1.235847	 -4.000823
H	 2.637895	 0.145837	 -3.275253
H	 2.246566	 1.543334	 -2.316930
H	 0.479116	 0.420118	 -4.549080
H	 1.542990	 1.805811	 -4.703621
H	 0.151788	 1.888025	 -3.646001

11 7 4 3 F
