%nprocshared=4
%mem=2GB
#HF/cc-pVTZ nosymm scf=tight opt=ModRedundant

Mol

0 1
O	 0.798402	 0.050596	 -0.758914
C	 1.704209	 0.119472	 -0.000093
C	 1.867864	 1.162344	 1.075674
O	 2.715427	 -0.733672	 0.000025
C	 0.733120	 2.175343	 1.125821
H	 1.967367	 0.636532	 2.019639
H	 2.822670	 1.649659	 0.907413
C	 0.931201	 3.215019	 2.224846
H	 -0.205098	 1.653690	 1.277144
H	 0.651035	 2.667816	 0.163521
C	 -0.197048	 4.240313	 2.290396
H	 1.015273	 2.714424	 3.186920
H	 1.875324	 3.732304	 2.069008
C	 0.000621	 5.279145	 3.389107
H	 -1.140400	 3.724827	 2.446984
H	 -0.280860	 4.742068	 1.330512
H	 0.053715	 4.810584	 4.366279
H	 -0.816909	 5.990494	 3.408153
H	 0.919850	 5.836142	 3.240768
C	 4.020999	 -0.192556	 0.000019
H	 4.182809	 0.412891	 -0.879449
H	 4.692590	 -1.035653	 0.000152
H	 4.182726	 0.413087	 0.879368

1 2 4 20 F
