%nprocshared=1
%mem=2GB
#HF/6-31G* nosymm scf=tight opt=ModRedundant

Mol

0 1
O	 1.519464	 0.109411	 -0.165366
C	 2.701189	 0.057885	 -0.047330
C	 3.658763	 1.203580	 -0.269191
O	 3.347903	 -1.046386	 0.304773
C	 2.959156	 2.502099	 -0.664809
H	 4.238355	 1.314799	 0.641245
H	 4.364880	 0.890884	 -1.034251
C	 3.923197	 3.646530	 -0.995562
H	 2.288124	 2.805444	 0.133199
H	 2.330199	 2.307208	 -1.526698
C	 4.749683	 4.156689	 0.188400
H	 3.340112	 4.473499	 -1.394131
H	 4.592856	 3.336449	 -1.796447
C	 5.613489	 5.368457	 -0.167208
H	 4.079551	 4.420221	 1.005279
H	 5.393499	 3.364957	 0.564744
C	 6.447746	 5.883655	 1.006981
H	 4.974738	 6.170829	 -0.532491
H	 6.276351	 5.108814	 -0.991161
C	 7.304575	 7.096168	 0.644547
H	 5.786991	 6.142626	 1.831589
H	 7.090033	 5.084306	 1.370695
H	 7.883919	 7.437826	 1.496742
H	 6.688216	 7.925755	 0.309760
H	 8.000823	 6.859352	 -0.155098
C	 4.728119	 -1.109107	 -0.004993
H	 4.882018	 -1.033965	 -1.071845
H	 5.068212	 -2.067527	 0.355250
H	 5.265056	 -0.311663	 0.488280

1 2 4 26 F
