%nprocshared=4
%mem=2GB
#HF/cc-pVTZ nosymm scf=tight opt=ModRedundant

Mol

0 1
H	 -2.816458	 -0.841657	 -0.064679
N	 -1.878861	 -0.711874	 0.250184
C	 -1.341419	 0.551458	 -0.220231
H	 -1.333674	 -1.468530	 -0.105118
C	 0.082190	 0.731516	 0.254705
H	 -1.357065	 0.652078	 -1.304747
H	 -1.939897	 1.357530	 0.189797
O	 0.899627	 0.966022	 -0.851871
H	 0.137832	 1.571626	 0.945568
H	 0.408363	 -0.163571	 0.779450
C	 2.251649	 1.081297	 -0.555279
H	 2.780498	 1.262893	 -1.479794
H	 2.440601	 1.910214	 0.123609
H	 2.638726	 0.171302	 -0.102902

8 5 3 6 F
