%nprocshared=4
%mem=2GB
#HF/cc-pVTZ nosymm scf=tight 
prop=(read,field)

Mol

0 1
H	 2.002557	 -0.000000	 0.445344
C	 1.165153	 0.000000	 -0.236906
O	 -0.000000	 0.000000	 0.518824
H	 1.229451	 0.882440	 -0.870168
H	 1.229451	 -0.882440	 -0.870168
C	 -1.165153	 -0.000000	 -0.236906
H	 -1.229451	 0.882440	 -0.870168
H	 -2.002557	 0.000000	 0.445344
H	 -1.229451	 -0.882440	 -0.870168

@grid.dat /N
