%nprocshared=4
%mem=2GB
#HF/cc-pVTZ nosymm scf=tight opt=ModRedundant

Mol

0 1
H	 2.431899	 -2.142859	 -4.078950
C	 2.571779	 -1.137386	 -3.699048
C	 1.361876	 -0.679935	 -2.891461
H	 3.468738	 -1.135967	 -3.089394
H	 2.747701	 -0.484502	 -4.547925
C	 1.518941	 0.738700	 -2.348530
H	 1.201257	 -1.366364	 -2.068080
H	 0.473748	 -0.727469	 -3.517395
C	 0.320107	 1.226084	 -1.540979
H	 2.406416	 0.793884	 -1.730329
H	 1.669825	 1.421224	 -3.179902
C	 0.166485	 0.574257	 -0.177158
H	 0.409086	 2.293789	 -1.356980
H	 -0.602467	 1.100138	 -2.100007
C	 -1.180025	 0.697761	 0.509157
O	 1.068691	 0.005363	 0.347875
C	 -2.285431	 -0.137488	 -0.145671
H	 -1.447360	 1.745713	 0.496200
H	 -1.065514	 0.394096	 1.546399
C	 -3.646545	 0.082747	 0.508954
H	 -2.348635	 0.118247	 -1.199806
H	 -2.034895	 -1.192387	 -0.096473
C	 -4.757412	 -0.737227	 -0.138149
H	 -3.900211	 1.137405	 0.459735
H	 -3.580878	 -0.166775	 1.564416
H	 -4.867876	 -0.486707	 -1.187777
H	 -4.549650	 -1.800049	 -0.072540
H	 -5.709585	 -0.556397	 0.346597

16 12 15 17 F
