%nprocshared=1
%mem=2GB
#HF/6-31G* nosymm scf=tight opt=ModRedundant

Mol

0 1
O	 3.225979	 0.970355	 -0.599647
C	 2.701189	 0.057885	 -0.047330
C	 1.245376	 -0.013843	 0.345420
O	 3.347903	 -1.046386	 0.304773
C	 0.907331	 -1.252775	 1.171792
H	 1.012985	 0.904197	 0.874937
H	 0.661662	 0.016247	 -0.571134
C	 -0.585184	 -1.394463	 1.489311
H	 1.479658	 -1.235566	 2.094432
H	 1.240088	 -2.131290	 0.629661
C	 -1.154031	 -0.313292	 2.412671
H	 -0.739850	 -2.365191	 1.954595
H	 -1.153432	 -1.411578	 0.560436
C	 -2.616820	 -0.560142	 2.787255
H	 -0.553725	 -0.265691	 3.319966
H	 -1.072486	 0.663278	 1.940830
C	 -3.197400	 0.516818	 3.705522
H	 -2.705060	 -1.530693	 3.272517
H	 -3.215969	 -0.618546	 1.879891
C	 -4.657361	 0.260850	 4.077938
H	 -2.599266	 0.577205	 4.612292
H	 -3.114061	 1.487108	 3.220370
H	 -5.040232	 1.040725	 4.728947
H	 -4.769232	 -0.687199	 4.596478
H	 -5.287797	 0.229120	 3.193733
C	 4.728119	 -1.109107	 -0.004993
H	 4.882018	 -1.033965	 -1.071845
H	 5.068212	 -2.067527	 0.355250
H	 5.265056	 -0.311663	 0.488280

6 3 2 1 F
