%nprocshared=4
%mem=2GB
#HF/cc-pVTZ nosymm scf=tight opt=ModRedundant

Mol

0 1
O	 -2.081319	 -0.951530	 -0.502732
N	 -1.613558	 0.006676	 0.014756
C	 -0.329345	 -0.171618	 0.743966
O	 -2.068523	 1.100482	 -0.024385
C	 0.835904	 0.041968	 -0.213982
H	 -0.346048	 -1.174374	 1.137184
H	 -0.333613	 0.555559	 1.538590
C	 0.475352	 -0.389205	 -1.633228
H	 1.112287	 1.089855	 -0.203831
H	 1.690144	 -0.523797	 0.139459
C	 1.627930	 -0.192428	 -2.611657
H	 -0.388038	 0.174886	 -1.973515
H	 0.179394	 -1.434096	 -1.628818
H	 1.923761	 0.849491	 -2.662499
H	 2.496155	 -0.769714	 -2.313927
H	 1.346695	 -0.506624	 -3.609329

9 5 3 2 F
