%nprocshared=4
%mem=2GB
#HF/6-31G* nosymm scf=tight opt=ModRedundant

Mol

0 1
H	 5.129519	 2.231385	 0.422794
C	 4.698772	 1.316270	 0.028403
C	 3.258336	 1.133697	 0.504837
H	 4.746735	 1.368371	 -1.055260
H	 5.327496	 0.489842	 0.348594
C	 2.622510	 -0.152167	 -0.028166
H	 2.666189	 1.987156	 0.190878
H	 3.238753	 1.120199	 1.593472
C	 1.185975	 -0.371355	 0.446798
H	 2.637547	 -0.143052	 -1.112295
H	 3.221147	 -1.002782	 0.289841
C	 0.169600	 0.576866	 -0.172154
H	 0.864409	 -1.379903	 0.191464
H	 1.121046	 -0.307864	 1.530740
C	 -1.181045	 0.701995	 0.511084
O	 0.411124	 1.189373	 -1.168601
C	 -2.285934	 -0.139295	 -0.145128
H	 -1.449051	 1.751551	 0.493206
H	 -1.071135	 0.403303	 1.551943
C	 -3.651768	 0.085446	 0.506485
H	 -2.346596	 0.110469	 -1.202272
H	 -2.034737	 -1.195320	 -0.088721
C	 -4.759797	 -0.746382	 -0.137905
H	 -3.908762	 1.140117	 0.445781
H	 -3.588286	 -0.154158	 1.565709
H	 -4.868882	 -0.505166	 -1.191300
H	 -4.548009	 -1.809175	 -0.062213
H	 -5.715422	 -0.564821	 0.343442

16 12 15 17 F
