%nprocshared=4
%mem=2GB
#HF/cc-pVTZ nosymm scf=tight opt=ModRedundant

Mol

0 1
O	 -2.071633	 -1.227563	 -0.223463
C	 -1.652164	 -0.152425	 0.058082
C	 -0.327811	 0.006324	 0.778296
C	 -2.402515	 1.108629	 -0.298924
C	 -0.487208	 -0.229640	 2.285060
H	 0.404969	 -0.683835	 0.373524
H	 0.021399	 1.015879	 0.603117
C	 -1.308432	 0.859843	 2.968323
H	 0.491792	 -0.286215	 2.754156
H	 -0.960249	 -1.193701	 2.437318
C	 -1.480237	 0.622737	 4.464795
H	 -0.833381	 1.823663	 2.807386
H	 -2.285281	 0.917916	 2.497226
H	 -0.520533	 0.594582	 4.969977
H	 -1.981513	 -0.319866	 4.656084
H	 -2.070152	 1.409667	 4.919925
H	 -3.240910	 0.874416	 -0.936711
H	 -1.747554	 1.818823	 -0.790984
H	 -2.760419	 1.579708	 0.610998

5 3 2 4 F
