%nprocshared=4
%mem=2GB
#HF/cc-pVTZ nosymm scf=tight opt=ModRedundant

Mol

0 1
H	 -3.941973	 0.934228	 -0.390224
C	 -3.240162	 0.342701	 0.161016
C	 -2.105997	 -0.000418	 -0.398703
H	 -3.485368	 0.047206	 1.162193
O	 -1.105468	 -0.585933	 0.298389
H	 -1.912908	 0.153455	 -1.444727
C	 0.099135	 -0.820080	 -0.339755
C	 1.056310	 0.344169	 -0.186866
H	 -0.024799	 -1.012361	 -1.398736
H	 0.559905	 -1.681786	 0.119150
F	 2.196402	 0.056056	 -0.782064
F	 0.585081	 1.442764	 -0.736901
F	 1.314447	 0.608113	 1.070972

6 3 2 1 F
