%nprocshared=4
%mem=2GB
#HF/cc-pVTZ nosymm scf=tight opt=ModRedundant

Mol

0 1
H	 -2.266619	 1.169943	 0.000098
O	 -1.438073	 1.611259	 0.000041
C	 -0.408657	 0.734701	 0.000005
C	 -0.206714	 0.008583	 -1.159038
C	 0.416198	 0.560822	 1.105217
H	 -0.864698	 0.171548	 -1.989959
C	 0.824889	 -0.903452	 -1.229431
C	 1.444688	 -0.362192	 1.006316
C	 0.194514	 1.353997	 2.369310
H	 0.975600	 -1.463568	 -2.132501
C	 1.658405	 -1.094393	 -0.144432
H	 2.091001	 -0.508227	 1.851846
H	 -0.787034	 1.166796	 2.795737
H	 0.926190	 1.089505	 3.119066
H	 0.282372	 2.422776	 2.195190
H	 2.462907	 -1.802128	 -0.191948

4 3 2 1 F
