%nprocshared=4
%mem=2GB
#HF/cc-pVTZ nosymm scf=tight opt=ModRedundant

Mol

0 1
O	 3.042008	 -0.988224	 0.050560
C	 2.574127	 -2.072921	 -0.023620
C	 3.300766	 -3.312667	 -0.478981
O	 1.317782	 -2.342573	 0.292610
C	 4.563343	 -3.604402	 0.322295
H	 2.590321	 -4.128985	 -0.429537
H	 3.528442	 -3.180531	 -1.532088
C	 4.333179	 -3.681248	 1.832248
H	 5.309503	 -2.848732	 0.102572
H	 4.980181	 -4.543322	 -0.020755
C	 3.139856	 -4.532709	 2.262831
H	 4.188199	 -2.670463	 2.201651
H	 5.233658	 -4.052116	 2.316886
C	 3.107845	 -5.900561	 1.586264
H	 3.168907	 -4.667061	 3.341709
H	 2.211415	 -4.012969	 2.045108
C	 2.823227	 -5.831325	 0.088609
H	 2.353654	 -6.520288	 2.065299
H	 4.059157	 -6.402783	 1.746400
C	 2.791054	 -7.201736	 -0.579759
H	 1.872856	 -5.329922	 -0.072976
H	 3.577774	 -5.214533	 -0.392104
H	 2.587182	 -7.116871	 -1.640993
H	 2.021907	 -7.831259	 -0.144761
H	 3.739954	 -7.715296	 -0.465504
C	 0.824678	 -3.623490	 -0.043565
H	 -0.139967	 -3.792406	 0.411591
H	 1.544729	 -4.329140	 0.337866
H	 0.731980	 -3.727573	 -1.114467

6 3 2 1 F
