%nprocshared=1
%mem=2GB
#HF/6-31G* nosymm scf=tight 

Mol

0 1
H	 1.244019	 -2.355286	 -3.278676
O	 2.138344	 -2.060374	 -3.369683
C	 2.155918	 -0.753947	 -3.886398
C	 1.714017	 0.298350	 -2.875397
H	 3.180304	 -0.568485	 -4.182896
H	 1.543084	 -0.691258	 -4.784887
C	 0.258506	 0.155111	 -2.423913
H	 2.371188	 0.243855	 -2.011382
H	 1.858916	 1.280289	 -3.322798
C	 -0.170165	 1.257507	 -1.451399
H	 0.124161	 -0.815361	 -1.954337
H	 -0.394809	 0.174620	 -3.296346
C	 -1.644565	 1.210352	 -1.033951
H	 0.456970	 1.214672	 -0.562742
H	 0.025918	 2.222536	 -1.913970
C	 -2.037799	 -0.007733	 -0.193645
H	 -1.867572	 2.110562	 -0.465001
H	 -2.271444	 1.252625	 -1.923375
C	 -3.489788	 0.042957	 0.286558
H	 -1.377218	 -0.076836	 0.669471
H	 -1.888773	 -0.920635	 -0.765225
C	 -4.216917	 1.317354	 -0.141063
H	 -4.025645	 -0.823308	 -0.095450
H	 -3.513059	 -0.038752	 1.371301
H	 -4.239342	 1.411634	 -1.223113
H	 -5.243387	 1.322503	 0.212445
H	 -3.726170	 2.201406	 0.256408

14 10 7 4 F
14 10 13 16 F
10 7 4 8 F
8 4 3 2 F
10 13 16 20 F
4 3 2 1 F
