%nprocshared=4
%mem=2GB
#HF/cc-pVTZ nosymm scf=tight opt=ModRedundant

Mol

0 1
H	 2.744366	 0.058223	 0.323104
N	 1.770036	 0.266942	 0.328286
C	 1.074456	 -0.559578	 1.294140
C	 1.208252	 0.121946	 -0.999576
H	 1.507606	 -0.399967	 2.274066
H	 1.152725	 -1.623292	 1.061750
C	 -0.393889	 -0.175750	 1.320894
H	 1.738355	 0.775407	 -1.681729
H	 1.294975	 -0.898709	 -1.376884
C	 -0.260268	 0.504882	 -0.969816
H	 -0.487730	 0.844308	 1.704646
H	 -0.926745	 -0.831784	 1.998982
N	 -0.976577	 -0.298712	 -0.000000
H	 -0.696507	 0.340988	 -1.948056
H	 -0.344903	 1.571830	 -0.743874
C	 -2.391156	 -0.021003	 -0.000000
H	 -2.853954	 -0.458728	 -0.875714
H	 -2.853954	 -0.458728	 0.875714
H	 -2.614037	 1.049773	 -0.000000

7 13 16 19 F
