%nprocshared=1
%mem=2GB
#HF/6-31G* nosymm scf=tight 

Mol

0 1
O	 -0.988096	 -1.408613	 0.050699
C	 -0.676749	 -0.249230	 -0.009274
C	 -1.746085	 0.827156	 -0.009539
N	 0.623947	 0.147590	 -0.102813
H	 -1.701500	 1.431508	 -0.908902
H	 -2.703425	 0.330732	 0.036390
H	 -1.647323	 1.487769	 0.845106
C	 1.413226	 -0.318379	 -1.226107
C	 1.380189	 0.709855	 0.994548
H	 2.068240	 0.477832	 -1.562292
H	 0.758080	 -0.605402	 -2.030061
H	 2.026821	 -1.173263	 -0.950252
H	 2.108685	 1.408934	 0.601332
H	 0.745381	 1.250624	 1.678304
H	 1.916871	 -0.055412	 1.552358

2 4 8 10 F
