%nprocshared=4
%mem=2GB
#HF/cc-pVTZ nosymm scf=tight opt=ModRedundant

Mol

0 1
H	 1.128311	 0.207724	 1.465118
C	 1.134565	 0.093781	 0.372499
C	 0.062554	 0.862911	 -0.350953
O	 1.948932	 -0.587720	 -0.146651
C	 -0.924825	 -0.050091	 -1.084522
H	 0.536914	 1.560968	 -1.028591
H	 -0.472668	 1.436834	 0.402190
C	 -0.299993	 -0.803842	 -2.255032
H	 -1.749416	 0.554976	 -1.443017
H	 -1.352868	 -0.757431	 -0.379614
H	 0.100561	 -0.115314	 -2.990588
H	 -1.035806	 -1.427775	 -2.747908
H	 0.512588	 -1.445072	 -1.931657

6 3 2 4 F
