%nprocshared=1
%mem=2GB
#HF/6-31G* nosymm scf=tight 

Mol

0 1
O	 -2.439739	 -0.935931	 -0.423848
C	 -1.921153	 0.064240	 -0.045697
C	 -2.624470	 1.379923	 0.150949
O	 -0.632575	 0.154573	 0.251549
H	 -2.168117	 2.136577	 -0.476876
H	 -3.669540	 1.273223	 -0.098610
H	 -2.519365	 1.700893	 1.180846
C	 0.160891	 -1.019931	 0.106212
C	 1.589627	 -0.672828	 0.480843
H	 0.089836	 -1.367806	 -0.916050
H	 -0.238459	 -1.792301	 0.749618
C	 1.898540	 0.824668	 0.431063
H	 2.245676	 -1.203982	 -0.205749
H	 1.796260	 -1.061201	 1.474688
C	 3.351535	 1.135597	 0.787617
H	 1.682152	 1.202233	 -0.566294
H	 1.236617	 1.350491	 1.111303
H	 3.544978	 2.202784	 0.746096
H	 4.038577	 0.648044	 0.101655
H	 3.590170	 0.795353	 1.791293

16 12 9 8 F
2 4 8 10 F
1 2 4 8 F
