%nprocshared=4
%mem=2GB
#HF/cc-pVTZ nosymm scf=tight opt=ModRedundant

Mol

0 1
O	 1.847685	 1.294399	 -0.000190
C	 1.704209	 0.119472	 -0.000093
C	 0.380337	 -0.600947	 -0.000234
O	 2.715427	 -0.733672	 0.000025
C	 -0.824290	 0.329213	 -0.000115
H	 0.371455	 -1.255476	 -0.865660
H	 0.371410	 -1.255787	 0.864952
C	 -0.422893	 1.798934	 -0.082692
H	 -1.408681	 0.156891	 0.896582
H	 -1.470749	 0.076700	 -0.832952
C	 -1.618147	 2.747530	 -0.084271
H	 0.227295	 2.044997	 0.753944
H	 0.165553	 1.964305	 -0.982482
C	 -1.217020	 4.216468	 -0.166305
H	 -2.206071	 2.583896	 0.814465
H	 -2.267407	 2.503734	 -0.920444
H	 -0.594510	 4.500176	 0.675851
H	 -2.087920	 4.861654	 -0.165124
H	 -0.656672	 4.419472	 -1.072966
C	 4.020999	 -0.192556	 0.000019
H	 4.182809	 0.412891	 -0.879449
H	 4.692590	 -1.035653	 0.000152
H	 4.182726	 0.413087	 0.879368

9 5 3 6 F
