%nprocshared=4
%mem=2GB
#HF/cc-pVTZ nosymm scf=tight opt=ModRedundant

Mol

0 1
H	 -3.958600	 0.899431	 -0.410073
C	 -3.249946	 0.323492	 0.148866
C	 -2.114609	 -0.019340	 -0.408650
H	 -3.489424	 0.043045	 1.155741
O	 -1.189946	 -0.765863	 0.237511
H	 -1.860813	 0.263491	 -1.413996
C	 0.026572	 -0.995256	 -0.379403
C	 1.057223	 0.049888	 -0.004615
H	 -0.054361	 -1.010670	 -1.459674
H	 0.397526	 -1.952058	 -0.044198
F	 2.203233	 -0.234060	 -0.590375
F	 0.698147	 1.254887	 -0.392621
F	 1.266440	 0.094219	 1.288722

3 5 7 9 F
