%nprocshared=4
%mem=2GB
#HF/cc-pVTZ nosymm scf=tight opt=ModRedundant

Mol

0 1
O	 -2.071633	 -1.227563	 -0.223463
C	 -1.652164	 -0.152425	 0.058082
C	 -0.327811	 0.006324	 0.778296
C	 -2.402515	 1.108629	 -0.298924
C	 0.843231	 -0.001575	 -0.211665
H	 -0.319484	 0.928173	 1.350354
H	 -0.227804	 -0.823091	 1.466705
C	 0.542104	 -0.804157	 -1.473970
H	 1.728457	 -0.410376	 0.268908
H	 1.079879	 1.022943	 -0.477606
C	 1.699264	 -0.804377	 -2.467018
H	 0.299871	 -1.827596	 -1.201171
H	 -0.344127	 -0.397156	 -1.951970
H	 2.591836	 -1.238342	 -2.028812
H	 1.943563	 0.204129	 -2.782618
H	 1.453765	 -1.378125	 -3.352988
H	 -3.240910	 0.874416	 -0.936711
H	 -1.747554	 1.818823	 -0.790984
H	 -2.760419	 1.579708	 0.610998

9 5 3 2 F
