%nprocshared=4
%mem=2GB
#HF/6-31G* nosymm scf=tight opt=ModRedundant

Mol

0 1
H	 -3.420663	 1.227371	 -1.044276
O	 -3.452007	 0.283848	 -0.965577
C	 -3.181085	 -0.079926	 0.364119
C	 -1.765924	 0.277073	 0.805136
H	 -3.327791	 -1.152017	 0.410903
H	 -3.905698	 0.375695	 1.036898
C	 -0.677594	 -0.417312	 -0.014550
H	 -1.637766	 1.358238	 0.744969
H	 -1.659588	 0.017670	 1.857098
C	 -1.195769	 -1.623136	 -0.801100
H	 0.123771	 -0.728953	 0.648325
H	 -0.240209	 0.302478	 -0.704470
C	 -0.101946	 -2.309388	 -1.623715
H	 -1.639859	 -2.333322	 -0.107674
H	 -1.997140	 -1.304280	 -1.466486
C	 -0.589950	 -3.469695	 -2.498754
H	 0.678867	 -2.668547	 -0.955111
H	 0.367670	 -1.567117	 -2.265829
C	 -1.111985	 -4.678135	 -1.719293
H	 0.232786	 -3.792966	 -3.131914
H	 -1.366524	 -3.110933	 -3.171380
H	 -0.360260	 -5.051107	 -1.028685
H	 -1.371206	 -5.488910	 -2.393300
H	 -1.999874	 -4.438035	 -1.143819

11 7 4 3 F
