%nprocshared=1
%mem=2GB
#HF/6-31G* nosymm scf=tight opt=ModRedundant

Mol

0 1
H	 -2.646374	 -0.642757	 1.268656
C	 -2.083525	 -0.384536	 0.393091
O	 -0.807605	 -0.127164	 0.768327
F	 -2.118945	 -1.383102	 -0.486752
F	 -2.621877	 0.670592	 -0.209486
C	 0.084052	 0.273579	 -0.209957
C	 -0.741608	 0.822328	 -1.366383
Cl	 1.084359	 -1.085716	 -0.747467
H	 0.745411	 1.050373	 0.132052
F	 0.045118	 1.237962	 -2.336151
F	 -1.441120	 1.853516	 -0.936533
F	 -1.571441	 -0.070086	 -1.849029

9 6 3 2 F
