%nprocshared=4
%mem=2GB
#HF/cc-pVTZ nosymm scf=tight opt=ModRedundant

Mol

0 1
H	 2.614283	 2.028610	 0.296620
O	 3.358864	 1.662087	 -0.142800
C	 3.565468	 0.338079	 0.273842
C	 2.533667	 -0.637565	 -0.272227
H	 4.548038	 0.064914	 -0.086598
H	 3.593945	 0.282242	 1.360360
C	 2.475399	 -1.970131	 0.471226
H	 1.558623	 -0.160395	 -0.244717
H	 2.766812	 -0.819414	 -1.318636
C	 1.452172	 -2.935549	 -0.125273
H	 2.236218	 -1.788941	 1.513803
H	 3.458994	 -2.436463	 0.452194
C	 1.403427	 -4.314708	 0.534878
H	 0.465161	 -2.481577	 -0.081165
H	 1.676624	 -3.067729	 -1.180080
C	 0.893882	 -4.324563	 1.975019
H	 0.761735	 -4.956198	 -0.062826
H	 2.393587	 -4.763678	 0.500731
C	 0.769697	 -5.731165	 2.555071
H	 -0.076702	 -3.834793	 2.014537
H	 1.554863	 -3.741614	 2.609273
C	 0.264774	 -5.744438	 3.994088
H	 0.099121	 -6.317737	 1.933106
H	 1.736712	 -6.224906	 2.508546
H	 -0.715753	 -5.285974	 4.069026
H	 0.185845	 -6.756765	 4.373655
H	 0.934554	 -5.197319	 4.649379

8 4 3 2 F
