%nprocshared=4
%mem=2GB
#HF/cc-pVTZ nosymm scf=tight opt=ModRedundant

Mol

0 1
O	 -0.294688	 1.318815	 -0.000872
C	 -0.448732	 0.145721	 -0.000187
C	 -1.780748	 -0.548101	 0.000195
O	 0.550743	 -0.719877	 0.000412
H	 -1.859389	 -1.183260	 -0.872613
H	 -2.570236	 0.185547	 -0.001342
H	 -1.860233	 -1.180337	 0.875064
C	 0.230261	 -2.079684	 -0.217033
H	 -0.437570	 -2.440782	 0.550846
H	 1.164980	 -2.615042	 -0.179948
H	 -0.237261	 -2.211018	 -1.181500

8 4 2 1 F
