%nprocshared=4
%mem=2GB
#HF/cc-pVTZ nosymm scf=tight opt=ModRedundant

Mol

0 1
H	 2.785638	 -0.491974	 -0.637922
O	 1.974816	 -0.905812	 -0.382891
C	 1.011689	 0.011154	 -0.396291
C	 -0.318151	 -0.570512	 0.000144
O	 1.218980	 1.137345	 -0.690729
C	 -1.454884	 0.441630	 -0.000560
H	 -0.522595	 -1.393083	 -0.677698
H	 -0.191535	 -1.020089	 0.979812
C	 -2.822577	 -0.232186	 0.000063
H	 -1.359760	 1.084704	 -0.867077
H	 -1.359641	 1.085996	 0.864983
H	 -2.954352	 -0.858985	 -0.875745
H	 -3.615886	 0.505352	 0.000019
H	 -2.953878	 -0.858359	 0.876394

7 4 6 10 F
