%nprocshared=4
%mem=2GB
#HF/cc-pVTZ nosymm scf=tight opt=ModRedundant

Mol

0 1
O	 3.219313	 0.959291	 -0.614106
C	 2.698710	 0.058177	 -0.050237
C	 1.246364	 -0.005813	 0.348416
O	 3.344101	 -1.038700	 0.312317
C	 0.453207	 1.232821	 -0.049003
H	 0.839270	 -0.907818	 -0.092281
H	 1.216683	 -0.160521	 1.422434
C	 -0.998367	 1.217982	 0.432195
H	 0.481498	 1.345443	 -1.127236
H	 0.951413	 2.105557	 0.354893
C	 -1.882951	 0.151251	 -0.211235
H	 -1.429490	 2.193659	 0.228843
H	 -1.019755	 1.099323	 1.513279
C	 -2.790426	 0.708744	 -1.304614
H	 -1.252046	 -0.628351	 -0.632009
H	 -2.498896	 -0.329040	 0.543396
C	 -3.881239	 1.635383	 -0.775237
H	 -3.251778	 -0.115650	 -1.843008
H	 -2.187137	 1.246274	 -2.032605
C	 -4.784723	 2.186781	 -1.873168
H	 -4.485020	 1.099603	 -0.047838
H	 -3.421668	 2.461424	 -0.239226
H	 -5.546859	 2.840025	 -1.464016
H	 -5.286945	 1.385902	 -2.405593
H	 -4.215000	 2.757597	 -2.598973
C	 4.720529	 -1.114346	 0.001449
H	 4.874321	 -1.055557	 -1.065852
H	 5.057824	 -2.067950	 0.373977
H	 5.264321	 -0.313596	 0.480350

15 11 8 5 F
