%nprocshared=4
%mem=2GB
#HF/cc-pVTZ nosymm scf=tight opt=ModRedundant

Mol

0 1
O	 -2.081319	 -0.951530	 -0.502732
N	 -1.613558	 0.006676	 0.014756
C	 -0.329345	 -0.171618	 0.743966
O	 -2.068523	 1.100482	 -0.024385
C	 0.835904	 0.041968	 -0.213982
H	 -0.346048	 -1.174374	 1.137184
H	 -0.333613	 0.555559	 1.538590
C	 2.061361	 -0.761892	 0.212900
H	 0.529606	 -0.250747	 -1.211508
H	 1.077570	 1.098108	 -0.244054
C	 3.245538	 -0.560193	 -0.725995
H	 1.805797	 -1.816725	 0.251015
H	 2.346848	 -0.476675	 1.221144
H	 3.000275	 -0.868718	 -1.736122
H	 3.543856	 0.481696	 -0.760487
H	 4.100755	 -1.139650	 -0.400427

9 5 3 2 F
