%nprocshared=4
%mem=2GB
#HF/cc-pVTZ nosymm scf=tight opt=ModRedundant

Mol

0 1
H	 -3.268214	 -0.875720	 0.463107
C	 -2.806015	 0.000007	 0.024886
N	 -1.391133	 0.000016	 0.301321
H	 -3.029448	 0.000055	 -1.045738
H	 -3.268126	 0.875758	 0.463150
C	 -1.092051	 0.457627	 1.640992
C	 -0.638768	 0.751991	 -0.679502
H	 -1.418519	 1.490856	 1.791675
H	 -1.627882	 -0.161394	 2.350770
C	 0.396405	 0.364405	 1.919959
H	 -0.843676	 0.347872	 -1.663773
H	 -0.934333	 1.805287	 -0.687001
C	 0.849688	 0.658769	 -0.400535
H	 0.601312	 0.768524	 2.904230
H	 0.691970	 -0.688891	 1.927459
N	 1.148769	 1.116380	 0.939136
H	 1.385518	 1.277790	 -1.110312
H	 1.176156	 -0.374460	 -0.551218
C	 2.563651	 1.116389	 1.215571
H	 2.747465	 1.522930	 2.202233
H	 3.080634	 1.739365	 0.496410
H	 3.004249	 0.116208	 1.174712

6 3 2 4 F
