%nprocshared=4
%mem=2GB
#HF/6-31G* nosymm scf=tight opt=ModRedundant

Mol

0 1
H	 -2.646374	 -0.642757	 1.268656
C	 -2.083525	 -0.384536	 0.393091
O	 -0.807605	 -0.127164	 0.768327
F	 -2.118945	 -1.383102	 -0.486752
F	 -2.621877	 0.670592	 -0.209486
C	 -0.234838	 1.055771	 0.337872
C	 1.150692	 0.711578	 -0.193162
Cl	 -0.121886	 2.222348	 1.665860
H	 -0.796090	 1.517651	 -0.455499
F	 1.755184	 1.793732	 -0.635513
F	 1.022195	 -0.126784	 -1.202159
F	 1.904984	 0.149903	 0.719821

6 3 2 4 F
