%nprocshared=1
%mem=2GB
#HF/6-31G* nosymm scf=tight 

Mol

0 1
H	 -3.135461	 -1.215070	 0.001379
O	 -2.310168	 -0.871793	 -0.309793
C	 -2.026376	 0.340750	 0.341611
C	 -0.673256	 0.843270	 -0.132153
H	 -2.792215	 1.080697	 0.115987
H	 -2.013526	 0.200402	 1.421792
C	 0.486613	 -0.083066	 0.235839
H	 -0.715586	 0.970948	 -1.210718
H	 -0.508072	 1.829858	 0.297090
C	 0.952695	 -0.948811	 -0.935941
H	 0.185557	 -0.718896	 1.062034
H	 1.323376	 0.515391	 0.594332
C	 2.115632	 -1.870319	 -0.569782
H	 0.118106	 -1.547678	 -1.294462
H	 1.247360	 -0.309158	 -1.765675
H	 1.840377	 -2.546490	 0.234530
H	 2.423259	 -2.473401	 -1.418665
H	 2.979121	 -1.299613	 -0.239339

14 10 7 11 F
2 3 4 8 F
1 2 3 4 F
