%nprocshared=4
%mem=2GB
#HF/cc-pVTZ nosymm scf=tight opt=ModRedundant

Mol

0 1
H	 2.342730	 0.877684	 -1.045694
C	 2.360424	 0.000000	 -0.411793
C	 1.173749	 0.000000	 0.526870
H	 3.286567	 0.000000	 0.151574
H	 2.342730	 -0.877684	 -1.045694
O	 -0.000000	 0.000000	 -0.223739
H	 1.203779	 0.876757	 1.172538
H	 1.203779	 -0.876757	 1.172538
C	 -1.173749	 0.000000	 0.526870
C	 -0.828856	 -0.222578	 1.983164
H	 -1.842509	 -0.783932	 0.173737
H	 -1.695477	 0.948214	 0.403655
H	 -0.323040	 -1.171199	 2.112553
H	 -1.728926	 -0.226367	 2.587303
H	 -0.175853	 0.562778	 2.342713

11 9 6 3 F
