%nprocshared=4
%mem=2GB
#HF/cc-pVTZ nosymm scf=tight opt=ModRedundant

Mol

0 1
O	 -2.081319	 -0.951530	 -0.502732
N	 -1.613558	 0.006676	 0.014756
C	 -0.329345	 -0.171618	 0.743966
O	 -2.068523	 1.100482	 -0.024385
C	 0.835904	 0.041968	 -0.213982
H	 -0.346048	 -1.174374	 1.137184
H	 -0.333613	 0.555559	 1.538590
C	 2.160608	 0.149579	 0.536847
H	 0.872435	 -0.784934	 -0.913594
H	 0.659834	 0.945447	 -0.786226
C	 3.343592	 0.371103	 -0.399078
H	 2.322004	 -0.755070	 1.115639
H	 2.105957	 0.966819	 1.249967
H	 3.443779	 -0.447718	 -1.102776
H	 3.224971	 1.285836	 -0.969085
H	 4.269466	 0.445002	 0.158110

9 5 3 2 F
