%nprocshared=4
%mem=2GB
#HF/cc-pVTZ nosymm scf=tight opt=ModRedundant

Mol

0 1
H	 1.752493	 2.239792	 2.378407
O	 2.652683	 2.048413	 2.191695
C	 2.913411	 0.685819	 2.402956
C	 2.310661	 -0.219107	 1.338772
H	 3.990459	 0.586430	 2.394713
H	 2.569480	 0.382223	 3.389867
C	 0.783839	 -0.228260	 1.314642
H	 2.690002	 0.088198	 0.368812
H	 2.673652	 -1.228972	 1.514293
C	 0.215039	 -1.172352	 0.256345
H	 0.422027	 0.778248	 1.132885
H	 0.409939	 -0.523275	 2.293647
C	 -1.311023	 -1.277304	 0.237018
H	 0.565750	 -0.861494	 -0.724775
H	 0.625173	 -2.164571	 0.422958
C	 -2.041121	 -0.006551	 -0.194127
H	 -1.588844	 -2.081346	 -0.438896
H	 -1.662223	 -1.577199	 1.221842
C	 -3.489218	 0.042606	 0.286507
H	 -2.022185	 0.066287	 -1.279394
H	 -1.518764	 0.869305	 0.178730
C	 -4.219984	 1.311773	 -0.139038
H	 -4.022855	 -0.824300	 -0.093339
H	 -3.510372	 -0.038577	 1.370031
H	 -4.244251	 1.405725	 -1.219696
H	 -5.244345	 1.313233	 0.215630
H	 -3.732090	 2.196311	 0.257073

10 13 16 20 F
