%nprocshared=1
%mem=2GB
#HF/6-31G* nosymm scf=tight 

Mol

0 1
O	 2.743782	 1.064975	 0.582761
C	 2.701189	 0.057885	 -0.047330
C	 1.927079	 -0.147825	 -1.326872
O	 3.347903	 -1.046386	 0.304773
C	 1.174692	 1.101372	 -1.780234
H	 2.634128	 -0.490793	 -2.074967
H	 1.244208	 -0.977303	 -1.161496
C	 0.300557	 0.879666	 -3.019277
H	 1.886180	 1.899417	 -1.970042
H	 0.550794	 1.445070	 -0.962282
C	 1.071265	 0.569461	 -4.305703
H	 -0.292886	 1.777128	 -3.177741
H	 -0.410817	 0.078884	 -2.822539
C	 0.163348	 0.465724	 -5.532864
H	 1.814944	 1.347036	 -4.473447
H	 1.622316	 -0.361934	 -4.196992
C	 0.922095	 0.150833	 -6.823321
H	 -0.382343	 1.399609	 -5.656618
H	 -0.587224	 -0.304309	 -5.361430
C	 0.008658	 0.052721	 -8.044676
H	 1.673217	 0.918799	 -6.995618
H	 1.464698	 -0.784531	 -6.703087
H	 0.575301	 -0.171284	 -8.943199
H	 -0.522666	 0.985268	 -8.212745
H	 -0.733127	 -0.730785	 -7.917602
C	 4.728119	 -1.109107	 -0.004993
H	 4.882018	 -1.033965	 -1.071845
H	 5.068212	 -2.067527	 0.355250
H	 5.265056	 -0.311663	 0.488280

21 17 14 11 F
17 14 11 15 F
15 11 8 5 F
6 3 5 9 F
11 8 5 9 F
2 4 26 27 F
6 3 2 1 F
