%nprocshared=4
%mem=2GB
#HF/cc-pVTZ nosymm scf=tight opt=ModRedundant

Mol

0 1
H	 2.614283	 2.028610	 0.296620
O	 3.358864	 1.662087	 -0.142800
C	 3.565468	 0.338079	 0.273842
C	 3.253214	 -0.691848	 -0.801534
H	 4.610751	 0.273239	 0.544321
H	 2.986891	 0.128048	 1.171387
C	 1.781177	 -0.752815	 -1.203081
H	 3.861807	 -0.475219	 -1.674371
H	 3.565934	 -1.665653	 -0.432335
C	 1.500521	 -1.819963	 -2.260087
H	 1.471180	 0.217042	 -1.577623
H	 1.175522	 -0.956110	 -0.321526
C	 0.028515	 -1.975631	 -2.646379
H	 2.084174	 -1.601890	 -3.151166
H	 1.861018	 -2.775633	 -1.889674
C	 -0.576936	 -0.781007	 -3.381256
H	 -0.066950	 -2.854303	 -3.278320
H	 -0.556596	 -2.182436	 -1.753053
C	 -2.015080	 -1.023455	 -3.832223
H	 0.035255	 -0.547346	 -4.249641
H	 -0.553044	 0.099526	 -2.746359
C	 -2.623893	 0.168694	 -4.562990
H	 -2.045909	 -1.895925	 -4.479080
H	 -2.626316	 -1.265353	 -2.966811
H	 -2.053223	 0.415756	 -5.452109
H	 -3.642532	 -0.037528	 -4.871134
H	 -2.642462	 1.049062	 -3.928986

4 3 2 1 F
