%nprocshared=4
%mem=2GB
#HF/cc-pVTZ nosymm scf=tight opt=ModRedundant

Mol

0 1
O	 3.042008	 -0.988224	 0.050560
C	 2.574127	 -2.072921	 -0.023620
C	 3.300766	 -3.312667	 -0.478981
O	 1.317782	 -2.342573	 0.292610
C	 4.755951	 -3.059873	 -0.852861
H	 3.206307	 -4.041958	 0.316483
H	 2.746111	 -3.716994	 -1.319938
C	 5.567313	 -2.376205	 0.248560
H	 4.794774	 -2.466407	 -1.759703
H	 5.218880	 -4.008022	 -1.097239
C	 5.402659	 -2.978742	 1.642922
H	 5.270438	 -1.332335	 0.285502
H	 6.620628	 -2.379706	 -0.023092
C	 5.544105	 -4.498476	 1.656656
H	 6.144387	 -2.543699	 2.308842
H	 4.432320	 -2.714038	 2.052691
C	 4.402200	 -5.221575	 0.948167
H	 5.602266	 -4.844179	 2.685950
H	 6.486659	 -4.775666	 1.190155
C	 4.549683	 -6.739351	 0.967692
H	 3.459724	 -4.945751	 1.413333
H	 4.344485	 -4.879216	 -0.081549
H	 3.723897	 -7.221185	 0.456910
H	 4.574916	 -7.116968	 1.984490
H	 5.467143	 -7.049762	 0.478694
C	 0.824678	 -3.623490	 -0.043565
H	 -0.139967	 -3.792406	 0.411591
H	 1.544729	 -4.329140	 0.337866
H	 0.731980	 -3.727573	 -1.114467

1 2 4 26 F
