%nprocshared=4
%mem=2GB
#HF/cc-pVTZ nosymm scf=tight opt=ModRedundant

Mol

0 1
H	 -3.436473	 1.252944	 -1.023892
O	 -3.458596	 0.315260	 -0.960865
C	 -3.176635	 -0.080824	 0.355601
C	 -1.763371	 0.265266	 0.799691
H	 -3.321825	 -1.153438	 0.379502
H	 -3.895468	 0.357385	 1.043382
C	 -0.673390	 -0.426948	 -0.013392
H	 -1.631049	 1.344913	 0.747560
H	 -1.664587	 -0.001624	 1.849167
C	 0.195094	 -1.364602	 0.821180
H	 -0.049033	 0.323285	 -0.485876
H	 -1.137551	 -0.988872	 -0.820425
C	 -0.622737	 -2.298444	 1.711203
H	 0.826501	 -1.945365	 0.155651
H	 0.866889	 -0.776669	 1.443179
C	 -1.393674	 -1.604675	 2.835566
H	 0.034488	 -3.051397	 2.140116
H	 -1.332501	 -2.836746	 1.089040
C	 -0.517552	 -0.961889	 3.908123
H	 -2.041450	 -2.336069	 3.309090
H	 -2.050431	 -0.851432	 2.408114
H	 0.154634	 -1.690770	 4.349685
H	 -1.125857	 -0.549849	 4.705262
H	 0.085523	 -0.154913	 3.509756

11 7 4 3 F
