%nprocshared=1
%mem=2GB
#HF/6-31G* nosymm scf=tight opt=ModRedundant

Mol

0 1
H	 2.591676	 2.013956	 0.335017
O	 3.341076	 1.666752	 -0.126416
C	 3.569581	 0.339145	 0.272707
C	 3.728397	 -0.622244	 -0.899997
H	 4.482049	 0.359685	 0.854647
H	 2.773113	 -0.002828	 0.932610
C	 2.472981	 -0.762251	 -1.764403
H	 4.558413	 -0.282823	 -1.514190
H	 4.005176	 -1.597756	 -0.503592
C	 2.646963	 -1.774398	 -2.900232
H	 2.215187	 0.208129	 -2.179459
H	 1.634673	 -1.068464	 -1.138453
C	 1.390852	 -2.016240	 -3.745239
H	 3.459291	 -1.449566	 -3.547885
H	 2.962115	 -2.723822	 -2.472478
C	 0.929735	 -0.813610	 -4.573207
H	 1.587672	 -2.846701	 -4.420081
H	 0.578396	 -2.340588	 -3.096739
C	 -0.261737	 -1.134492	 -5.478119
H	 1.758670	 -0.459500	 -5.184421
H	 0.660552	 0.011048	 -3.917630
C	 -0.728098	 0.065974	 -6.300951
H	 0.004301	 -1.949296	 -6.148049
H	 -1.087758	 -1.497695	 -4.870124
H	 0.066632	 0.432740	 -6.944465
H	 -1.571759	 -0.193694	 -6.932966
H	 -1.036584	 0.886084	 -5.658596

4 3 2 1 F
