%nprocshared=1
%mem=2GB
#HF/6-31G* nosymm scf=tight 

Mol

0 1
H	 1.693012	 2.602603	 -2.444411
O	 2.563256	 2.243775	 -2.539221
C	 3.117294	 2.003672	 -1.270581
C	 2.497176	 0.805142	 -0.560858
H	 4.171270	 1.823571	 -1.439018
H	 3.037196	 2.892227	 -0.645414
C	 1.012281	 0.976753	 -0.231456
H	 2.633216	 -0.073844	 -1.185552
H	 3.053681	 0.630262	 0.358427
C	 0.432966	 -0.219936	 0.528246
H	 0.456788	 1.124675	 -1.153363
H	 0.875664	 1.878731	 0.365296
C	 -1.030233	 -0.062745	 0.957991
H	 0.534362	 -1.115020	 -0.082811
H	 1.036423	 -0.390484	 1.417321
C	 -2.037799	 -0.007733	 -0.193645
H	 -1.288180	 -0.898922	 1.604588
H	 -1.131173	 0.833153	 1.568740
C	 -3.489788	 0.042957	 0.286558
H	 -1.901712	 -0.879802	 -0.831679
H	 -1.844383	 0.860483	 -0.819019
C	 -4.216917	 1.317354	 -0.141063
H	 -4.025645	 -0.823308	 -0.095450
H	 -3.513059	 -0.038752	 1.371301
H	 -4.239342	 1.411634	 -1.223113
H	 -5.243387	 1.322503	 0.212445
H	 -3.726170	 2.201406	 0.256408

14 10 7 4 F
14 10 13 16 F
10 7 4 8 F
8 4 3 2 F
10 13 16 20 F
4 3 2 1 F
