%nprocshared=4
%mem=2GB
#HF/6-31G* nosymm scf=tight opt=ModRedundant

Mol

0 1
H	 2.409642	 0.182841	 5.896944
C	 1.984642	 -0.647859	 5.342117
C	 0.938150	 -0.164325	 4.339010
H	 2.798956	 -1.160385	 4.838577
H	 1.552100	 -1.338836	 6.060628
C	 0.313165	 -1.312599	 3.543601
H	 1.397107	 0.541936	 3.654791
H	 0.154290	 0.374606	 4.868924
C	 -0.751531	 -0.860938	 2.543755
H	 1.089433	 -1.851627	 3.012093
H	 -0.144294	 -2.016279	 4.235415
C	 -0.201952	 -0.113076	 1.337974
H	 -1.281951	 -1.728751	 2.154748
H	 -1.507260	 -0.248690	 3.030790
C	 -1.181045	 0.701995	 0.511084
O	 0.951916	 -0.174825	 1.036009
C	 -2.285934	 -0.139295	 -0.145128
H	 -0.603273	 1.217732	 -0.246485
H	 -1.634785	 1.453848	 1.154140
C	 -3.651768	 0.085446	 0.506485
H	 -2.346596	 0.110469	 -1.202272
H	 -2.034737	 -1.195320	 -0.088721
C	 -4.759797	 -0.746382	 -0.137905
H	 -3.908762	 1.140117	 0.445781
H	 -3.588286	 -0.154158	 1.565709
H	 -4.868882	 -0.505166	 -1.191300
H	 -4.548009	 -1.809175	 -0.062213
H	 -5.715422	 -0.564821	 0.343442

12 15 17 21 F
