%nprocshared=1
%mem=2GB
#HF/6-31G* nosymm scf=tight opt=ModRedundant

Mol

0 1
H	 -3.261111	 -0.295142	 1.469456
C	 -3.306842	 -0.277400	 0.373456
C	 -2.660244	 0.921717	 -0.272021
O	 -3.838538	 -1.161155	 -0.216482
C	 -1.730028	 1.676684	 0.687655
H	 -2.133471	 0.590126	 -1.159301
H	 -3.463186	 1.586074	 -0.589147
C	 -0.488154	 0.876890	 1.089374
H	 -1.423836	 2.603539	 0.211765
H	 -2.286121	 1.963531	 1.578854
C	 0.435205	 1.645707	 2.036550
H	 0.061540	 0.598795	 0.192520
H	 -0.787379	 -0.057486	 1.560485
C	 1.684065	 0.849101	 2.423484
H	 0.722310	 2.582245	 1.565171
H	 -0.114429	 1.912254	 2.938348
C	 2.599021	 1.546531	 3.436656
H	 2.254755	 0.615661	 1.525980
H	 1.372007	 -0.105967	 2.840830
C	 3.268166	 2.820206	 2.917409
H	 3.372977	 0.845519	 3.739182
H	 2.031197	 1.777113	 4.335727
H	 3.830513	 2.622816	 2.008524
H	 2.545101	 3.598317	 2.696741
H	 3.960050	 3.218943	 3.653141

6 3 2 4 F
