%nprocshared=4
%mem=2GB
#HF/cc-pVTZ nosymm scf=tight opt=ModRedundant

Mol

0 1
H	 2.854761	 -0.145018	 1.243463
O	 3.546431	 -0.261222	 0.619029
C	 3.396086	 -1.485604	 -0.049968
C	 2.247287	 -1.494652	 -1.047397
H	 4.328927	 -1.654028	 -0.570949
H	 3.275806	 -2.296736	 0.665608
C	 0.865288	 -1.352110	 -0.413672
H	 2.405552	 -0.694084	 -1.763777
H	 2.293934	 -2.428665	 -1.602232
C	 -0.264115	 -1.398578	 -1.441839
H	 0.816780	 -0.417035	 0.134310
H	 0.718579	 -2.149012	 0.313453
C	 -1.675409	 -1.334426	 -0.854993
H	 -0.133671	 -0.585866	 -2.152269
H	 -0.171929	 -2.317433	 -2.014269
C	 -2.041121	 -0.006551	 -0.194127
H	 -2.385804	 -1.529897	 -1.653527
H	 -1.801619	 -2.140728	 -0.135894
C	 -3.489218	 0.042606	 0.286507
H	 -1.871351	 0.803340	 -0.900330
H	 -1.385529	 0.183670	 0.650277
C	 -4.219984	 1.311773	 -0.139038
H	 -4.022855	 -0.824300	 -0.093339
H	 -3.510372	 -0.038577	 1.370031
H	 -4.244251	 1.405725	 -1.219696
H	 -5.244345	 1.313233	 0.215630
H	 -3.732090	 2.196311	 0.257073

20 16 19 22 F
