%nprocshared=4
%mem=2GB
#HF/6-31G* nosymm scf=tight opt=ModRedundant

Mol

0 1
H	 1.501182	 -2.871002	 -2.446656
O	 2.358525	 -2.529153	 -2.654437
C	 2.236719	 -1.467594	 -3.566748
C	 1.675828	 -0.196534	 -2.938628
H	 3.236661	 -1.281709	 -3.937203
H	 1.626673	 -1.765461	 -4.418745
C	 0.241711	 -0.337800	 -2.422662
H	 2.329278	 0.102497	 -2.123183
H	 1.715567	 0.596048	 -3.684015
C	 -0.311246	 0.969221	 -1.847552
H	 0.211065	 -1.111282	 -1.660329
H	 -0.404028	 -0.672041	 -3.234847
C	 -1.774407	 0.905191	 -1.394342
H	 0.310912	 1.284056	 -1.011701
H	 -0.218683	 1.746376	 -2.603305
C	 -2.037799	 -0.007733	 -0.193645
H	 -2.098176	 1.912664	 -1.141386
H	 -2.396243	 0.589607	 -2.230741
C	 -3.489788	 0.042957	 0.286558
H	 -1.379359	 0.277638	 0.625581
H	 -1.786163	 -1.035789	 -0.442810
C	 -4.216917	 1.317354	 -0.141063
H	 -4.025645	 -0.823308	 -0.095450
H	 -3.513059	 -0.038752	 1.371301
H	 -4.239342	 1.411634	 -1.223113
H	 -5.243387	 1.322503	 0.212445
H	 -3.726170	 2.201406	 0.256408

20 16 19 22 F
