%nprocshared=1
%mem=2GB
#HF/6-31G* nosymm scf=tight 

Mol

0 1
H	 1.916900	 -3.787134	 0.348955
C	 2.167876	 -2.734802	 0.263172
C	 0.908473	 -1.875269	 0.162826
H	 2.758858	 -2.465008	 1.133906
H	 2.798497	 -2.616511	 -0.613510
C	 1.217350	 -0.386724	 0.039429
H	 0.280651	 -2.026904	 1.035314
H	 0.323642	 -2.192942	 -0.698829
N	 0.000003	 0.397874	 -0.023260
H	 1.778705	 -0.063596	 0.912030
H	 1.866931	 -0.217950	 -0.825983
C	 -1.217365	 -0.386708	 0.039277
H	 -0.000031	 1.072115	 0.718656
C	 -2.452633	 0.504241	 -0.042481
H	 -1.215291	 -1.074557	 -0.802042
H	 -1.269739	 -1.003477	 0.942735
C	 -3.758029	 -0.289423	 -0.010781
H	 -2.394220	 1.093569	 -0.952170
H	 -2.440793	 1.210787	 0.785871
H	 -3.816659	 -0.981993	 -0.845726
H	 -4.617837	 0.370165	 -0.069296
H	 -3.847478	 -0.867502	 0.904682

15 12 14 18 F
