%nprocshared=1
%mem=2GB
#HF/6-31G* nosymm scf=tight 

Mol

0 1
O	 3.225979	 0.970355	 -0.599647
C	 2.701189	 0.057885	 -0.047330
C	 1.245376	 -0.013843	 0.345420
O	 3.347903	 -1.046386	 0.304773
C	 0.455112	 1.231400	 -0.050772
H	 0.838542	 -0.913825	 -0.103701
H	 1.208210	 -0.175333	 1.419774
C	 -0.998893	 1.219485	 0.433193
H	 0.482531	 1.345121	 -1.130325
H	 0.957290	 2.103070	 0.354729
C	 -1.252322	 1.986401	 1.734240
H	 -1.297589	 0.183676	 0.576741
H	 -1.644918	 1.613604	 -0.349962
C	 -2.692704	 1.852815	 2.232690
H	 -0.571040	 1.623050	 2.502127
H	 -1.024432	 3.041131	 1.597916
C	 -2.958895	 2.619409	 3.529459
H	 -2.924659	 0.800022	 2.384535
H	 -3.374999	 2.206019	 1.461056
C	 -4.398528	 2.477708	 4.022487
H	 -2.277254	 2.268403	 4.301341
H	 -2.731762	 3.672677	 3.378399
H	 -4.555976	 3.031904	 4.942641
H	 -4.645926	 1.437805	 4.216373
H	 -5.103872	 2.852352	 3.286005
C	 4.728119	 -1.109107	 -0.004993
H	 4.882018	 -1.033965	 -1.071845
H	 5.068212	 -2.067527	 0.355250
H	 5.265056	 -0.311663	 0.488280

21 17 14 11 F
17 14 11 15 F
15 11 8 5 F
6 3 5 9 F
2 4 26 27 F
1 2 4 26 F
6 3 2 1 F
