%nprocshared=1
%mem=2GB
#HF/6-31G* nosymm scf=tight opt=ModRedundant

Mol

0 1
O	 2.862325	 1.357334	 0.000267
C	 2.843464	 0.164689	 -0.000222
C	 1.546494	 -0.624492	 -0.000609
C	 4.124123	 -0.644674	 -0.000428
C	 0.291004	 0.242674	 0.000989
H	 1.557904	 -1.283758	 -0.867573
H	 1.558622	 -1.285963	 0.864672
C	 -0.994322	 -0.586602	 0.000262
H	 0.309117	 0.896430	 -0.865270
H	 0.309661	 0.894078	 0.869017
C	 -2.259874	 0.272531	 0.000494
H	 -1.004862	 -1.240012	 -0.870939
H	 -1.005220	 -1.241071	 0.870675
C	 -3.084324	 0.136252	 -1.280804
H	 -1.985582	 1.316483	 0.141728
H	 -2.877426	 0.002518	 0.855315
C	 -4.346743	 0.997602	 -1.273141
H	 -2.468426	 0.407042	 -2.135887
H	 -3.360390	 -0.906644	 -1.422270
H	 -4.102058	 2.050711	 -1.167116
H	 -4.909314	 0.880018	 -2.194221
H	 -5.000898	 0.726953	 -0.449142
H	 4.165367	 -1.288615	 -0.874074
H	 4.976217	 0.020734	 -0.001915
H	 4.166763	 -1.286207	 0.874930

15 11 8 12 F
