%nprocshared=1
%mem=2GB
#HF/6-31G* nosymm scf=tight opt=ModRedundant

Mol

0 1
O	 0.625848	 1.349995	 -0.000749
C	 0.486307	 0.169203	 0.000779
C	 1.608116	 -0.841643	 0.000302
O	 -0.698257	 -0.426125	 0.001050
C	 2.990107	 -0.200498	 -0.000684
H	 1.468623	 -1.481519	 -0.865924
H	 1.469683	 -1.481289	 0.866878
H	 3.129736	 0.423364	 -0.875135
H	 3.757882	 -0.966877	 -0.001197
H	 3.130964	 0.423383	 0.873533
C	 -1.002191	 -1.285840	 1.094629
C	 -2.394414	 -1.835389	 0.866545
H	 -0.941276	 -0.720799	 2.014739
H	 -0.263400	 -2.074379	 1.139166
H	 -3.121754	 -1.032975	 0.818939
H	 -2.667670	 -2.498810	 1.680703
H	 -2.440264	 -2.394043	 -0.061388

11 4 2 3 F
