%nprocshared=4
%mem=2GB
#HF/cc-pVTZ nosymm scf=tight opt=ModRedundant

Mol

0 1
H	 -1.835082	 1.385983	 0.000069
C	 -1.300516	 0.441153	 -0.000028
O	 -0.006604	 0.654344	 -0.000106
O	 -1.828920	 -0.612308	 0.000113
C	 0.852093	 -0.482521	 -0.000161
C	 0.372908	 -1.422354	 1.080485
H	 1.866297	 -0.154145	 0.177375
H	 0.818119	 -0.945832	 -0.975943
H	 0.408688	 -0.944097	 2.051032
H	 1.006985	 -2.300476	 1.106977
H	 -0.644776	 -1.739745	 0.891931

7 5 3 2 F
