%nprocshared=1
%mem=2GB
#HF/6-31G* nosymm scf=tight opt=ModRedundant

Mol

0 1
O	 0.216034	 0.013175	 0.761626
C	 1.122059	 0.121804	 -0.000188
C	 1.242002	 1.171362	 -1.078120
O	 2.172624	 -0.688929	 0.000216
C	 0.057667	 2.131900	 -1.123521
H	 2.174389	 1.703669	 -0.910616
H	 1.364286	 0.652077	 -2.024769
C	 0.204307	 3.184076	 -2.223879
H	 -0.045309	 2.619707	 -0.159184
H	 -0.856694	 1.566512	 -1.274461
C	 -0.978641	 4.149885	 -2.277277
H	 1.122377	 3.747130	 -2.068337
H	 0.309730	 2.689883	 -3.187585
H	 -1.089578	 4.685248	 -1.338803
H	 -0.849665	 4.885330	 -3.065162
H	 -1.907919	 3.620530	 -2.466661
C	 3.452279	 -0.082609	 0.000533
H	 3.583069	 0.529321	 -0.880332
H	 4.163299	 -0.894027	 0.001117
H	 3.582335	 0.529955	 0.881077

1 2 4 17 F
