%nprocshared=1
%mem=2GB
#HF/6-31G* nosymm scf=tight 
prop=(read,field)

Mol

0 1
H	 4.617843	 0.370121	 -0.069266
C	 3.758033	 -0.289450	 -0.010589
C	 2.452646	 0.504231	 -0.042157
H	 3.816549	 -0.982085	 -0.845491
H	 3.847587	 -0.867460	 0.904905
C	 1.217350	 -0.386714	 0.039432
H	 2.394262	 1.093718	 -0.951821
H	 2.440824	 1.210648	 0.786232
N	 0.000003	 0.397884	 -0.023256
H	 1.215349	 -1.074604	 -0.801856
H	 1.269580	 -1.003428	 0.942933
C	 -1.217365	 -0.386698	 0.039280
H	 -0.000031	 1.072125	 0.718659
C	 -2.452633	 0.504251	 -0.042478
H	 -1.215291	 -1.074547	 -0.802038
H	 -1.269739	 -1.003467	 0.942738
C	 -3.758029	 -0.289413	 -0.010777
H	 -2.394220	 1.093579	 -0.952167
H	 -2.440793	 1.210797	 0.785874
H	 -3.816659	 -0.981983	 -0.845722
H	 -4.617837	 0.370175	 -0.069293
H	 -3.847478	 -0.867492	 0.904685

@grid.dat /N
