%nprocshared=4
%mem=2GB
#HF/cc-pVTZ nosymm scf=tight opt=ModRedundant

Mol

0 1
O	 -2.081319	 -0.951530	 -0.502732
N	 -1.613558	 0.006676	 0.014756
C	 -0.329345	 -0.171618	 0.743966
O	 -2.068523	 1.100482	 -0.024385
C	 -0.015135	 1.088409	 1.540641
H	 0.416625	 -0.366318	 -0.008390
H	 -0.465604	 -1.027156	 1.384060
C	 1.297046	 0.948518	 2.307960
H	 0.041236	 1.930070	 0.860210
H	 -0.828942	 1.280749	 2.230178
C	 1.631744	 2.194521	 3.120324
H	 2.103536	 0.744734	 1.609760
H	 1.237945	 0.090128	 2.970592
H	 1.730340	 3.063797	 2.479750
H	 0.857157	 2.405575	 3.849150
H	 2.565211	 2.068770	 3.655102

5 3 2 1 F
