%nprocshared=4
%mem=2GB
#HF/cc-pVTZ nosymm scf=tight opt=ModRedundant

Mol

0 1
H	 3.721907	 -0.933076	 -0.066039
O	 2.824271	 -1.154299	 0.131461
C	 2.076458	 -0.067370	 -0.038225
C	 0.626018	 -0.337582	 0.258241
O	 2.538288	 0.965419	 -0.381593
C	 -0.267326	 0.883135	 0.076490
H	 0.325620	 -1.161483	 -0.378003
H	 0.574537	 -0.713685	 1.275261
C	 -1.726822	 0.642622	 0.463839
H	 -0.210803	 1.217591	 -0.953497
H	 0.129920	 1.693110	 0.675679
C	 -2.107075	 1.097779	 1.871774
H	 -1.925992	 -0.421568	 0.379662
H	 -2.378549	 1.128511	 -0.259078
C	 -3.542988	 0.737870	 2.239329
H	 -1.427585	 0.644366	 2.588534
H	 -1.979082	 2.171419	 1.965957
H	 -3.786372	 1.069371	 3.242103
H	 -3.700203	 -0.334627	 2.197707
H	 -4.248819	 1.200823	 1.557691

12 9 6 10 F
