%nprocshared=4
%mem=2GB
#HF/cc-pVTZ nosymm scf=tight opt=ModRedundant

Mol

0 1
H	 -3.258660	 -0.290394	 1.471450
C	 -3.307964	 -0.275695	 0.374072
C	 -2.653809	 0.914422	 -0.273689
O	 -3.855140	 -1.148880	 -0.205112
C	 -2.231392	 0.644028	 -1.720798
H	 -3.328753	 1.757745	 -0.205927
H	 -1.771176	 1.144166	 0.319170
C	 -3.406818	 0.445813	 -2.675401
H	 -1.626047	 1.476575	 -2.062502
H	 -1.585717	 -0.230304	 -1.749796
C	 -2.970521	 0.188263	 -4.115225
H	 -4.043037	 1.326287	 -2.642272
H	 -4.022643	 -0.382239	 -2.334053
C	 -4.148407	 0.002380	 -5.069835
H	 -2.349234	 1.014094	 -4.447417
H	 -2.342052	 -0.699068	 -4.146327
C	 -3.760486	 -0.339415	 -6.509486
H	 -4.757165	 0.903599	 -5.068112
H	 -4.783385	 -0.791582	 -4.686780
C	 -3.022818	 0.771455	 -7.253057
H	 -4.664642	 -0.583615	 -7.058357
H	 -3.152768	 -1.240511	 -6.512676
H	 -3.604388	 1.687818	 -7.260334
H	 -2.062299	 0.993006	 -6.803610
H	 -2.841315	 0.488801	 -8.283653

6 3 2 4 F
