%nprocshared=1
%mem=2GB
#HF/6-31G* nosymm scf=tight 

Mol

0 1
H	 -3.892951	 0.981613	 -0.358725
C	 -3.196921	 0.361773	 0.172313
C	 -2.076860	 -0.007332	 -0.404944
H	 -3.439953	 0.057760	 1.173024
O	 -0.861342	 0.292551	 0.123683
H	 -2.053492	 -0.581970	 -1.314032
C	 0.268575	 0.022385	 -0.632723
C	 0.603647	 1.164439	 -1.565317
H	 0.161323	 -0.878293	 -1.226837
H	 1.097940	 -0.103869	 0.047497
F	 1.708291	 0.875059	 -2.237498
F	 -0.359149	 1.376437	 -2.447311
F	 0.807725	 2.291146	 -0.914722

11 8 7 9 F
3 5 7 9 F
6 3 5 7 F
