%nprocshared=1
%mem=2GB
#HF/6-31G* nosymm scf=tight 

Mol

0 1
O	 1.846825	 1.296220	 0.000415
C	 1.705091	 0.115954	 0.001797
C	 0.381791	 -0.609817	 0.001258
O	 2.721346	 -0.737485	 -0.000216
C	 -0.823008	 0.326187	 0.001381
H	 0.371250	 -1.265087	 -0.865474
H	 0.370908	 -1.265746	 0.867490
C	 -0.505695	 1.680586	 0.636974
H	 -1.643423	 -0.147075	 0.531599
H	 -1.165468	 0.468439	 -1.018812
C	 -1.703564	 2.631838	 0.646282
H	 -0.159434	 1.530929	 1.658592
H	 0.319295	 2.149031	 0.102341
C	 -1.385566	 3.985376	 1.280366
H	 -2.527740	 2.166391	 1.182225
H	 -2.050061	 2.783022	 -0.373630
H	 -1.068873	 3.870155	 2.313151
H	 -2.253765	 4.636996	 1.271818
H	 -0.587016	 4.491511	 0.745150
C	 4.024888	 -0.184556	 -0.001949
H	 4.179030	 0.422472	 -0.882452
H	 4.701782	 -1.024608	 -0.003642
H	 4.181981	 0.421185	 0.878906

15 11 8 12 F
9 5 8 12 F
1 2 3 6 F
1 2 4 20 F
