%nprocshared=1
%mem=2GB
#HF/6-31G* nosymm scf=tight 

Mol

0 1
H	 -2.753005	 -0.654483	 1.146013
C	 -2.706639	 -0.477341	 0.073347
O	 -1.393972	 -0.322926	 -0.360703
H	 -3.121650	 -1.333115	 -0.441006
H	 -3.310914	 0.398864	 -0.158053
C	 -0.725790	 0.754374	 0.215670
C	 0.712736	 0.754527	 -0.245683
H	 -1.196844	 1.692962	 -0.079046
H	 -0.754066	 0.691293	 1.301591
O	 1.392611	 -0.295398	 0.366430
H	 0.741905	 0.655310	 -1.328878
H	 1.173392	 1.707605	 0.017248
C	 2.706965	 -0.449871	 -0.062409
H	 2.756559	 -0.644779	 -1.131878
H	 3.305899	 0.433456	 0.155466
H	 3.125548	 -1.294566	 0.467107

3 6 7 11 F
2 3 6 7 F
