%nprocshared=4
%mem=2GB
#HF/cc-pVTZ nosymm scf=tight opt=ModRedundant

Mol

0 1
H	 -2.644180	 -0.653737	 1.272255
C	 -2.092774	 -0.380414	 0.391915
O	 -0.808934	 -0.154049	 0.752536
F	 -2.163230	 -1.351640	 -0.507133
F	 -2.627232	 0.691260	 -0.169301
C	 -0.396471	 1.148101	 0.935781
C	 0.967438	 1.294381	 0.265236
Cl	 -0.273047	 1.545320	 2.659881
H	 -1.067168	 1.861047	 0.489102
F	 1.410966	 2.519289	 0.391357
F	 0.843044	 1.039465	 -1.015724
F	 1.853276	 0.475022	 0.761416

6 3 2 4 F
