%nprocshared=1
%mem=2GB
#HF/6-31G* nosymm scf=tight opt=ModRedundant

Mol

0 1
H	 2.591676	 2.013956	 0.335017
O	 3.341076	 1.666752	 -0.126416
C	 3.569581	 0.339145	 0.272707
C	 5.038165	 -0.064916	 0.203984
H	 3.220310	 0.274973	 1.295236
H	 2.964082	 -0.346289	 -0.319180
C	 5.621047	 -0.054128	 -1.211290
H	 5.610471	 0.605856	 0.839513
H	 5.135320	 -1.063190	 0.627513
C	 7.080335	 -0.516221	 -1.253330
H	 5.546335	 0.949492	 -1.620594
H	 5.023121	 -0.700391	 -1.854073
C	 7.687190	 -0.605768	 -2.658338
H	 7.684975	 0.151333	 -0.642079
H	 7.146406	 -1.496830	 -0.786701
C	 7.846734	 0.736200	 -3.378160
H	 8.665670	 -1.074859	 -2.578664
H	 7.081572	 -1.273224	 -3.269539
C	 8.551834	 0.607368	 -4.730075
H	 8.410195	 1.419058	 -2.743868
H	 6.873659	 1.196307	 -3.532207
C	 8.706648	 1.944603	 -5.453609
H	 9.533094	 0.161247	 -4.583131
H	 7.995513	 -0.082103	 -5.361757
H	 9.287099	 2.646108	 -4.860995
H	 9.211322	 1.820459	 -6.406776
H	 7.739539	 2.399609	 -5.648627

4 3 2 1 F
