%nprocshared=4
%mem=2GB
#HF/cc-pVTZ nosymm scf=tight opt=ModRedundant

Mol

0 1
O	 0.395927	 1.296676	 -0.000076
C	 0.503051	 0.114301	 -0.000074
C	 -0.701422	 -0.805636	 -0.000109
C	 1.858118	 -0.556123	 0.000212
C	 -0.490770	 -2.102767	 -0.765065
H	 -0.961865	 -1.004533	 1.036252
H	 -1.540319	 -0.247158	 -0.407286
H	 0.328657	 -2.671401	 -0.346229
H	 -1.385834	 -2.712025	 -0.726042
H	 -0.254928	 -1.907330	 -1.802569
H	 1.961106	 -1.191101	 -0.872843
H	 2.636688	 0.191085	 -0.000109
H	 1.961070	 -1.190284	 0.873873

6 3 2 1 F
