%nprocshared=4
%mem=2GB
#HF/cc-pVTZ nosymm scf=tight opt=ModRedundant

Mol

0 1
O	 -0.294688	 1.318815	 -0.000872
C	 -0.448732	 0.145721	 -0.000187
C	 -1.780748	 -0.548101	 0.000195
O	 0.550743	 -0.719877	 0.000412
H	 -1.859389	 -1.183260	 -0.872613
H	 -2.570236	 0.185547	 -0.001342
H	 -1.860233	 -1.180337	 0.875064
C	 0.410294	 -1.872215	 -0.806717
H	 -0.446485	 -2.451801	 -0.496814
H	 1.314820	 -2.442367	 -0.670916
H	 0.294012	 -1.598036	 -1.844660

8 4 2 1 F
