%nprocshared=4
%mem=2GB
#HF/cc-pVTZ nosymm scf=tight opt=ModRedundant

Mol

0 1
O	 -1.278239	 1.034789	 -0.784693
C	 -1.204115	 0.062668	 -0.112312
C	 -2.386398	 -0.667698	 0.460323
O	 -0.068058	 -0.518372	 0.226882
H	 -2.382952	 -1.693172	 0.114333
H	 -3.296656	 -0.175702	 0.158400
H	 -2.312537	 -0.685191	 1.540100
C	 1.169086	 0.037484	 -0.230612
C	 0.997594	 0.289227	 -1.715310
C	 2.309214	 -0.914751	 0.082378
H	 1.324910	 0.971117	 0.288172
H	 0.173139	 0.967079	 -1.895704
H	 1.899111	 0.730173	 -2.123409
H	 0.800328	 -0.637031	 -2.241682
H	 3.245173	 -0.500919	 -0.274306
H	 2.394856	 -1.074097	 1.148175
H	 2.150671	 -1.870263	 -0.404597

11 8 4 2 F
