%nprocshared=1
%mem=2GB
#HF/6-31G* nosymm scf=tight 

Mol

0 1
H	 3.860740	 0.361685	 0.584660
N	 3.050827	 -0.227059	 0.615761
C	 1.841924	 0.544793	 0.366113
H	 3.024331	 -0.634648	 1.531184
C	 0.622008	 -0.369097	 0.317504
H	 1.958498	 1.038518	 -0.593837
H	 1.675464	 1.332566	 1.105102
C	 -0.679275	 0.379305	 0.025956
H	 0.794142	 -1.131033	 -0.437253
H	 0.531323	 -0.892430	 1.268942
C	 -1.903357	 -0.536963	 -0.023547
H	 -0.588213	 0.904960	 -0.923383
H	 -0.836886	 1.145247	 0.783808
C	 -3.225172	 0.228290	 0.028445
H	 -1.867824	 -1.134999	 -0.931459
H	 -1.860449	 -1.239604	 0.805977
H	 -3.313397	 0.915643	 -0.808262
H	 -4.073500	 -0.448134	 -0.008893
H	 -3.306061	 0.809945	 0.942516

6 3 5 9 F
12 8 5 9 F
1 2 3 6 F
