%nprocshared=4
%mem=2GB
#HF/cc-pVTZ nosymm scf=tight opt=ModRedundant

Mol

0 1
H	 2.230918	 -0.934777	 -2.142358
C	 1.507491	 -1.132948	 -1.362190
C	 1.322304	 0.099773	 -0.484271
H	 0.577028	 -1.421349	 -1.838040
H	 1.865257	 -1.977952	 -0.784857
C	 0.308557	 -0.162619	 0.622645
H	 0.980755	 0.935562	 -1.082212
H	 2.266383	 0.383251	 -0.035614
N	 -1.069352	 -0.004081	 0.085342
H	 0.371632	 -1.172932	 0.991288
H	 0.400391	 0.548875	 1.426218
O	 -1.584901	 -0.965470	 -0.377818
O	 -1.548033	 1.079343	 0.130056

7 3 6 9 F
