%nprocshared=1
%mem=2GB
#HF/6-31G* nosymm scf=tight 

Mol

0 1
O	 -2.439739	 -0.935931	 -0.423848
C	 -1.921153	 0.064240	 -0.045697
C	 -2.624470	 1.379923	 0.150949
O	 -0.632575	 0.154573	 0.251549
H	 -2.168117	 2.136577	 -0.476876
H	 -3.669540	 1.273223	 -0.098610
H	 -2.519365	 1.700893	 1.180846
C	 0.160891	 -1.019931	 0.106212
C	 1.589627	 -0.672828	 0.480843
H	 0.089836	 -1.367806	 -0.916050
H	 -0.238459	 -1.792301	 0.749618
C	 1.744951	 0.704655	 1.128002
H	 2.186040	 -0.718551	 -0.428076
H	 1.974499	 -1.440823	 1.146662
C	 3.198368	 1.032245	 1.467506
H	 1.350983	 1.463355	 0.454755
H	 1.142333	 0.747771	 2.029308
H	 3.281882	 2.012638	 1.925641
H	 3.821271	 1.029017	 0.577417
H	 3.611635	 0.306589	 2.162281

16 12 9 8 F
2 4 8 10 F
1 2 4 8 F
