%nprocshared=4
%mem=2GB
#HF/cc-pVTZ nosymm scf=tight opt=ModRedundant

Mol

0 1
H	 -0.559488	 -1.548965	 -0.438174
N	 -0.625934	 -0.663929	 -0.000707
C	 -1.882356	 -0.290438	 0.605102
C	 0.468494	 0.129045	 -0.002160
H	 -2.677797	 -0.273083	 -0.130398
H	 -1.776229	 0.694593	 1.026464
H	 -2.153918	 -0.981540	 1.394196
C	 1.785715	 -0.615093	 0.000603
O	 0.413285	 1.323206	 0.000532
H	 1.866994	 -1.243310	 -0.878792
H	 2.591506	 0.100263	 0.006422
H	 1.860358	 -1.250360	 0.875522

3 2 4 9 F
