%nprocshared=1
%mem=2GB
#HF/6-31G* nosymm scf=tight 

Mol

0 1
O	 -2.042549	 -1.228399	 -0.269030
C	 -1.653912	 -0.146171	 0.050137
C	 -0.332303	 0.024011	 0.778412
C	 -2.438579	 1.106236	 -0.272369
C	 0.845713	 -0.001731	 -0.208243
H	 -0.323783	 0.953829	 1.340327
H	 -0.235459	 -0.796807	 1.480410
C	 0.787742	 1.139739	 -1.224470
H	 0.861385	 -0.952675	 -0.737906
H	 1.771478	 0.055180	 0.356435
C	 1.962789	 1.121832	 -2.201277
H	 -0.145791	 1.082250	 -1.780021
H	 0.771579	 2.089493	 -0.695061
H	 1.986067	 0.197093	 -2.770810
H	 2.909499	 1.210741	 -1.676607
H	 1.897130	 1.943394	 -2.907500
H	 -3.277823	 0.863061	 -0.908988
H	 -1.806773	 1.843019	 -0.759671
H	 -2.802853	 1.554979	 0.648059

11 8 5 9 F
5 3 2 4 F
