%nprocshared=1
%mem=2GB
#HF/6-31G* nosymm scf=tight 

Mol

0 1
H	 2.591676	 2.013956	 0.335017
O	 3.341076	 1.666752	 -0.126416
C	 3.569581	 0.339145	 0.272707
C	 2.539767	 -0.640285	 -0.279495
H	 4.553106	 0.084646	 -0.100901
H	 3.608576	 0.269204	 1.359154
C	 1.115811	 -0.397273	 0.226630
H	 2.556196	 -0.582511	 -1.364741
H	 2.852081	 -1.648031	 -0.010655
C	 0.819708	 -1.134361	 1.535768
H	 0.407634	 -0.711668	 -0.534951
H	 0.962062	 0.671567	 0.375900
C	 -0.565345	 -0.857217	 2.131720
H	 0.935836	 -2.205082	 1.377914
H	 1.572540	 -0.853161	 2.269165
C	 -1.740745	 -1.377906	 1.299977
H	 -0.610170	 -1.313148	 3.118601
H	 -0.681177	 0.214104	 2.288854
C	 -3.093387	 -1.171675	 1.985007
H	 -1.597812	 -2.439166	 1.101467
H	 -1.759823	 -0.886426	 0.330242
C	 -4.268931	 -1.684752	 1.154036
H	 -3.088124	 -1.673289	 2.950327
H	 -3.233684	 -0.112913	 2.192916
H	 -4.174620	 -2.748873	 0.956612
H	 -5.212580	 -1.526156	 1.666880
H	 -4.324036	 -1.175678	 0.195824

14 10 7 4 F
14 10 13 16 F
8 4 3 2 F
10 13 16 20 F
20 16 19 22 F
4 3 2 1 F
