%nprocshared=4
%mem=2GB
#HF/6-31G* nosymm scf=tight opt=ModRedundant

Mol

0 1
H	 -2.646374	 -0.642757	 1.268656
C	 -2.083525	 -0.384536	 0.393091
O	 -0.807605	 -0.127164	 0.768327
F	 -2.118945	 -1.383102	 -0.486752
F	 -2.621877	 0.670592	 -0.209486
C	 0.036490	 0.445089	 -0.165867
C	 1.342189	 -0.338223	 -0.124262
Cl	 0.321896	 2.153577	 0.204032
H	 -0.359906	 0.389138	 -1.164623
F	 2.195735	 0.144306	 -1.002194
F	 1.094345	 -1.593338	 -0.441592
F	 1.897276	 -0.311962	 1.062820

6 3 2 4 F
