%nprocshared=1
%mem=2GB
#HF/6-31G* nosymm scf=tight 

Mol

0 1
O	 -0.988096	 -1.408613	 0.050699
C	 -0.676749	 -0.249230	 -0.009274
C	 -1.746085	 0.827156	 -0.009539
N	 0.623947	 0.147590	 -0.102813
H	 -1.701500	 1.431508	 -0.908902
H	 -2.703425	 0.330732	 0.036390
H	 -1.647323	 1.487769	 0.845106
C	 1.614383	 -0.816228	 -0.540954
C	 1.153945	 1.339917	 0.521451
H	 2.340374	 -0.323678	 -1.178409
H	 1.129713	 -1.602626	 -1.092873
H	 2.141440	 -1.253204	 0.304436
H	 1.961398	 1.729436	 -0.087100
H	 0.405292	 2.111829	 0.602712
H	 1.550489	 1.136599	 1.514541

2 4 8 10 F
