%nprocshared=1
%mem=2GB
#HF/6-31G* nosymm scf=tight 

Mol

0 1
H	 2.591676	 2.013956	 0.335017
O	 3.341076	 1.666752	 -0.126416
C	 3.569581	 0.339145	 0.272707
C	 2.539767	 -0.640285	 -0.279495
H	 4.553106	 0.084646	 -0.100901
H	 3.608576	 0.269204	 1.359154
C	 1.115811	 -0.397273	 0.226630
H	 2.556196	 -0.582511	 -1.364741
H	 2.852081	 -1.648031	 -0.010655
C	 1.054523	 0.655277	 1.337126
H	 0.701638	 -1.333365	 0.590715
H	 0.486042	 -0.077478	 -0.603709
C	 -0.358926	 0.999040	 1.821203
H	 1.652534	 0.319219	 2.182285
H	 1.526005	 1.566960	 0.976239
C	 -1.089156	 -0.139616	 2.538634
H	 -0.291213	 1.848204	 2.498072
H	 -0.956873	 1.334583	 0.975209
C	 -2.450765	 0.282430	 3.094814
H	 -0.467576	 -0.507387	 3.353798
H	 -1.231259	 -0.978424	 1.861501
C	 -3.184606	 -0.854034	 3.805864
H	 -2.315971	 1.112219	 3.785297
H	 -3.069802	 0.659271	 2.283229
H	 -2.605068	 -1.231218	 4.643773
H	 -4.144521	 -0.523207	 4.190249
H	 -3.367735	 -1.685698	 3.131208

14 10 7 4 F
14 10 13 16 F
8 4 3 2 F
10 13 16 20 F
20 16 19 22 F
4 3 2 1 F
