%nprocshared=4
%mem=2GB
#HF/cc-pVTZ nosymm scf=tight opt=ModRedundant

Mol

0 1
O	 -2.071633	 -1.227563	 -0.223463
C	 -1.652164	 -0.152425	 0.058082
C	 -0.327811	 0.006324	 0.778296
C	 -2.402515	 1.108629	 -0.298924
C	 0.472381	 1.184012	 0.208939
H	 -0.493135	 0.153382	 1.840448
H	 0.230239	 -0.911479	 0.643924
C	 0.958123	 0.932378	 -1.215478
H	 1.328013	 1.390117	 0.846991
H	 -0.151747	 2.070770	 0.231067
C	 1.743707	 2.106019	 -1.790444
H	 1.577530	 0.039875	 -1.232695
H	 0.103110	 0.723547	 -1.851782
H	 2.625406	 2.317114	 -1.194557
H	 1.139153	 3.006163	 -1.815419
H	 2.070892	 1.898864	 -2.802589
H	 -3.240910	 0.874416	 -0.936711
H	 -1.747554	 1.818823	 -0.790984
H	 -2.760419	 1.579708	 0.610998

5 3 2 4 F
