%nprocshared=4
%mem=2GB
#HF/cc-pVTZ nosymm scf=tight opt=ModRedundant

Mol

0 1
H	 -1.576184	 -0.707182	 -3.352614
C	 -2.273618	 -0.706645	 -2.503808
C	 -1.872194	 -1.589360	 -1.353345
O	 -3.256835	 -0.051850	 -2.546637
C	 -0.439530	 -1.329313	 -0.878451
H	 -2.588131	 -1.458123	 -0.552380
H	 -1.950696	 -2.615004	 -1.707175
C	 -0.247837	 0.040196	 -0.230469
H	 -0.167064	 -2.104361	 -0.170353
H	 0.242734	 -1.434784	 -1.718442
C	 1.181757	 0.280428	 0.247371
H	 -0.930592	 0.133673	 0.609897
H	 -0.527168	 0.821805	 -0.932244
C	 2.151032	 -0.811012	 -0.202643
H	 1.515939	 1.247397	 -0.115449
H	 1.191514	 0.341223	 1.333422
C	 3.580021	 -0.656538	 0.320835
H	 2.170545	 -0.847575	 -1.289412
H	 1.766632	 -1.772905	 0.124928
C	 4.327657	 0.562694	 -0.213579
H	 4.138806	 -1.549270	 0.057813
H	 3.561991	 -0.620783	 1.406976
H	 4.355973	 0.557257	 -1.298551
H	 3.867136	 1.491650	 0.100501
H	 5.351524	 0.571613	 0.142204

12 8 11 14 F
