%nprocshared=1
%mem=2GB
#HF/6-31G* nosymm scf=tight opt=ModRedundant

Mol

0 1
H	 -2.646374	 -0.642757	 1.268656
C	 -2.083525	 -0.384536	 0.393091
O	 -0.807605	 -0.127164	 0.768327
F	 -2.118945	 -1.383102	 -0.486752
F	 -2.621877	 0.670592	 -0.209486
C	 0.084052	 0.273579	 -0.209957
C	 1.434196	 0.462625	 0.469405
Cl	 -0.448614	 1.782223	 -0.969876
H	 0.196587	 -0.461595	 -0.987535
F	 2.342162	 0.833899	 -0.408030
F	 1.813023	 -0.688365	 0.988202
F	 1.384741	 1.354252	 1.428847

9 6 3 2 F
