%nprocshared=4
%mem=2GB
#HF/6-31G* nosymm scf=tight opt=ModRedundant

Mol

0 1
H	 -3.261111	 -0.295142	 1.469456
C	 -3.306842	 -0.277400	 0.373456
C	 -2.660244	 0.921717	 -0.272021
O	 -3.838538	 -1.161155	 -0.216482
C	 -2.228522	 0.649612	 -1.719719
H	 -3.349563	 1.755933	 -0.211761
H	 -1.782180	 1.170502	 0.322760
C	 -3.403283	 0.422701	 -2.674574
H	 -1.639026	 1.492902	 -2.067053
H	 -1.564809	 -0.213358	 -1.742637
C	 -2.958716	 0.164182	 -4.115526
H	 -4.057548	 1.291612	 -2.646659
H	 -4.003347	 -0.416759	 -2.328498
C	 -4.136525	 -0.046352	 -5.070717
H	 -2.351457	 1.000671	 -4.452059
H	 -2.313689	 -0.713102	 -4.141915
C	 -3.738572	 -0.390591	 -6.510580
H	 -4.760978	 0.845689	 -5.074607
H	 -4.759142	 -0.850121	 -4.683398
C	 -3.012878	 0.731373	 -7.255015
H	 -4.638752	 -0.648935	 -7.062742
H	 -3.117599	 -1.284074	 -6.508846
H	 -3.604135	 1.643332	 -7.258644
H	 -2.052172	 0.961657	 -6.806699
H	 -2.830562	 0.452546	 -8.288461

6 3 2 4 F
