%nprocshared=1
%mem=2GB
#HF/6-31G* nosymm scf=tight 

Mol

0 1
H	 -3.161837	 0.500524	 -0.000234
C	 -2.367097	 -0.232926	 -0.000000
O	 -1.158440	 0.455814	 -0.000122
H	 -2.468853	 -0.861886	 -0.882833
H	 -2.468942	 -0.861421	 0.883154
C	 -0.029776	 -0.365156	 0.000148
C	 1.212217	 0.508981	 0.000007
H	 -0.036772	 -1.013236	 -0.877259
H	 -0.036869	 -1.012778	 0.877897
C	 0.912604	 1.950127	 0.410144
H	 1.941428	 0.071076	 0.674656
H	 1.650121	 0.484844	 -0.993148
H	 0.495627	 1.998588	 1.412244
H	 1.815738	 2.551051	 0.400943
H	 0.201609	 2.415171	 -0.267074

6 3 2 4 F
8 6 3 2 F
