%nprocshared=1
%mem=2GB
#HF/6-31G* nosymm scf=tight 

Mol

0 1
H	 -2.646374	 -0.642757	 1.268656
C	 -2.083525	 -0.384536	 0.393091
O	 -0.807605	 -0.127164	 0.768327
F	 -2.118945	 -1.383102	 -0.486752
F	 -2.621877	 0.670592	 -0.209486
C	 -0.609356	 0.735051	 1.831328
C	 0.476135	 1.717359	 1.410685
Cl	 -0.117861	 -0.154133	 3.282190
H	 -1.495473	 1.294346	 2.075785
F	 0.710950	 2.582929	 2.373904
F	 0.058008	 2.384768	 0.353721
F	 1.597929	 1.113217	 1.103174

10 7 6 9 F
9 6 3 2 F
