%nprocshared=1
%mem=2GB
#HF/6-31G* nosymm scf=tight 

Mol

0 1
H	 1.147044	 0.506808	 -2.000100
C	 1.013217	 1.214499	 -1.173018
C	 0.692068	 0.589600	 0.160137
O	 1.123535	 2.382327	 -1.363116
C	 -0.558097	 -0.297372	 0.091132
H	 0.573661	 1.383758	 0.887992
H	 1.547608	 -0.015588	 0.457847
C	 -1.850991	 0.512573	 -0.019058
H	 -0.476753	 -0.965681	 -0.762987
H	 -0.604799	 -0.930658	 0.975228
C	 -3.096943	 -0.368295	 -0.099594
H	 -1.800724	 1.150330	 -0.898172
H	 -1.931651	 1.177355	 0.838044
H	 -3.060452	 -1.020287	 -0.967456
H	 -3.996858	 0.233488	 -0.175704
H	 -3.191959	 -0.995686	 0.782074

9 5 8 12 F
4 2 3 6 F
