%nprocshared=1
%mem=2GB
#HF/6-31G* nosymm scf=tight 

Mol

0 1
H	 -3.420663	 1.227371	 -1.044276
O	 -3.452007	 0.283848	 -0.965577
C	 -3.181085	 -0.079926	 0.364119
C	 -1.765924	 0.277073	 0.805136
H	 -3.327791	 -1.152017	 0.410903
H	 -3.905698	 0.375695	 1.036898
C	 -0.677594	 -0.417312	 -0.014550
H	 -1.637766	 1.358238	 0.744969
H	 -1.659588	 0.017670	 1.857098
C	 0.738335	 -0.034840	 0.421385
H	 -0.814977	 -0.178223	 -1.064632
H	 -0.802730	 -1.495410	 0.071702
C	 0.762924	 1.167589	 1.368827
H	 1.205499	 -0.893192	 0.898257
H	 1.339741	 0.190394	 -0.458493
C	 2.165277	 1.644651	 1.763761
H	 0.199282	 0.927641	 2.269064
H	 0.238142	 1.994555	 0.894962
C	 2.962891	 0.646725	 2.605403
H	 2.068541	 2.572258	 2.322757
H	 2.727927	 1.890118	 0.865221
H	 2.418649	 0.372943	 3.505394
H	 3.912887	 1.073699	 2.912056
H	 3.178358	 -0.265345	 2.058715

20 16 13 17 F
17 13 10 7 F
11 7 4 3 F
1 2 3 5 F
7 4 3 2 F
