%nprocshared=1
%mem=2GB
#HF/6-31G* nosymm scf=tight 

Mol

0 1
H	 4.617940	 0.371086	 -0.058954
C	 3.758121	 -0.288838	 -0.004524
C	 2.452663	 0.504720	 -0.036259
H	 3.818646	 -0.978538	 -0.841708
H	 3.845718	 -0.870031	 0.909144
C	 1.217350	 -0.386724	 0.039429
H	 2.396221	 1.097374	 -0.943984
H	 2.438843	 1.208232	 0.794567
N	 0.000003	 0.397874	 -0.023260
H	 1.217372	 -1.071667	 -0.804263
H	 1.267657	 -1.006585	 0.940883
C	 -1.217365	 -0.386708	 0.039277
H	 -0.000031	 1.072115	 0.718656
C	 -2.452633	 0.504241	 -0.042481
H	 -1.215291	 -1.074557	 -0.802042
H	 -1.269739	 -1.003477	 0.942735
C	 -3.758029	 -0.289423	 -0.010781
H	 -2.394220	 1.093569	 -0.952170
H	 -2.440793	 1.210787	 0.785871
H	 -3.816659	 -0.981993	 -0.845726
H	 -4.617837	 0.370165	 -0.069296
H	 -3.847478	 -0.867502	 0.904682

15 12 14 18 F
