%nprocshared=1
%mem=2GB
#HF/6-31G* nosymm scf=tight 

Mol

0 1
H	 5.204638	 -0.017001	 1.447110
C	 4.634951	 -0.456286	 0.634086
C	 3.132810	 -0.363279	 0.898844
H	 4.902616	 0.068125	 -0.278433
H	 4.953122	 -1.489859	 0.527816
C	 2.299323	 -0.980420	 -0.226433
H	 2.855079	 0.678092	 1.025391
H	 2.901083	 -0.867092	 1.835949
C	 0.791628	 -0.918336	 0.019066
H	 2.524740	 -0.480844	 -1.161984
H	 2.583154	 -2.023374	 -0.347797
C	 0.195915	 0.477603	 -0.089202
H	 0.274150	 -1.533851	 -0.715188
H	 0.537933	 -1.341631	 0.988415
C	 -1.181045	 0.701995	 0.511084
O	 0.775728	 1.364299	 -0.640556
C	 -2.285934	 -0.139295	 -0.145128
H	 -1.403175	 1.757384	 0.408484
H	 -1.136633	 0.472094	 1.574031
C	 -3.651768	 0.085446	 0.506485
H	 -2.346596	 0.110469	 -1.202272
H	 -2.034737	 -1.195320	 -0.088721
C	 -4.759797	 -0.746382	 -0.137905
H	 -3.908762	 1.140117	 0.445781
H	 -3.588286	 -0.154158	 1.565709
H	 -4.868882	 -0.505166	 -1.191300
H	 -4.548009	 -1.809175	 -0.062213
H	 -5.715422	 -0.564821	 0.343442

10 6 3 2 F
16 12 15 17 F
