%nprocshared=4
%mem=2GB
#HF/cc-pVTZ nosymm scf=tight opt=ModRedundant

Mol

0 1
H	 -1.391009	 1.045102	 -2.125915
C	 -1.063166	 0.572876	 -1.223997
C	 -1.921220	 0.444315	 -0.085415
C	 0.173698	 0.079566	 -1.124775
H	 -2.922007	 0.830741	 -0.132913
C	 -1.486262	 -0.150445	 1.029776
H	 0.874050	 0.137816	 -1.934253
N	 0.640204	 -0.530428	 -0.000115
H	 -2.099679	 -0.264177	 1.899687
C	 -0.137141	 -0.687261	 1.134331
C	 2.006991	 -1.033007	 -0.000020
O	 0.289851	 -1.227899	 2.118013
H	 2.182444	 -1.636914	 -0.880881
H	 2.678769	 -0.195442	 -0.002236
H	 2.183828	 -1.633244	 0.883082

10 8 11 13 F
