%nprocshared=4
%mem=2GB
#HF/cc-pVTZ nosymm scf=tight opt=ModRedundant

Mol

0 1
H	 -2.303434	 0.899356	 2.853845
C	 -2.320136	 0.232878	 2.016089
C	 -1.225995	 0.044817	 1.319787
H	 -3.236473	 -0.266517	 1.769653
O	 -1.189946	 -0.765863	 0.237511
H	 -0.300202	 0.533568	 1.563009
C	 0.026572	 -0.995256	 -0.379403
C	 1.057223	 0.049888	 -0.004615
H	 -0.054361	 -1.010670	 -1.459674
H	 0.397526	 -1.952058	 -0.044198
F	 2.203233	 -0.234060	 -0.590375
F	 0.698147	 1.254887	 -0.392621
F	 1.266440	 0.094219	 1.288722

3 5 7 9 F
