%nprocshared=4
%mem=2GB
#HF/cc-pVTZ nosymm scf=tight opt=ModRedundant

Mol

0 1
O	 0.655767	 -0.118293	 0.495161
C	 1.704209	 0.119472	 -0.000093
C	 2.070202	 1.401926	 -0.702233
O	 2.715427	 -0.733672	 0.000025
C	 0.944735	 2.425909	 -0.735516
H	 2.949131	 1.799894	 -0.205691
H	 2.391633	 1.138396	 -1.704568
C	 1.349397	 3.710192	 -1.453071
H	 0.637417	 2.652171	 0.279193
H	 0.079169	 1.989801	 -1.221206
C	 0.232970	 4.749482	 -1.497060
H	 2.219431	 4.141120	 -0.962569
H	 1.659502	 3.475866	 -2.469026
C	 0.637506	 6.033260	 -2.213772
H	 -0.076886	 4.984988	 -0.482819
H	 -0.635975	 4.320697	 -1.988220
H	 1.483751	 6.504740	 -1.725091
H	 -0.176669	 6.748580	 -2.226815
H	 0.919863	 5.835261	 -3.242512
C	 4.020999	 -0.192556	 0.000019
H	 4.182809	 0.412891	 -0.879449
H	 4.692590	 -1.035653	 0.000152
H	 4.182726	 0.413087	 0.879368

1 2 4 20 F
