%nprocshared=4
%mem=2GB
#HF/cc-pVTZ nosymm scf=tight 
prop=(read,field)

Mol

0 1
H	 -3.401687	 -1.036208	 -0.000000
O	 -3.113765	 -0.140967	 -0.000000
C	 -1.775092	 -0.058795	 -0.000000
C	 -0.966327	 -1.188545	 -0.000000
C	 -1.211479	 1.206323	 -0.000000
H	 -1.410991	 -2.166656	 -0.000000
C	 0.401073	 -1.047439	 0.000000
H	 -1.853137	 2.064399	 -0.000000
C	 0.159517	 1.330402	 0.000000
H	 1.035979	 -1.911154	 0.000000
C	 0.981116	 0.213521	 0.000000
H	 0.597852	 2.311412	 0.000000
C	 2.447397	 0.371262	 0.000000
O	 3.227422	 -0.521888	 -0.000000
H	 2.796533	 1.409484	 -0.000000

@grid.dat /N
