%nprocshared=1
%mem=2GB
#HF/6-31G* nosymm scf=tight 

Mol

0 1
H	 1.003333	 -3.086530	 -1.302671
O	 1.184988	 -2.457230	 -0.611485
C	 0.400508	 -1.396616	 -0.801495
C	 0.624473	 -0.343591	 0.253101
O	 -0.366923	 -1.332859	 -1.705928
C	 -0.265902	 0.883932	 0.072916
H	 0.471458	 -0.821183	 1.215320
H	 1.676963	 -0.073597	 0.219632
C	 -1.728698	 0.646073	 0.462102
H	 -0.209144	 1.219470	 -0.958188
H	 0.135059	 1.692851	 0.673903
C	 -2.482460	 -0.343073	 -0.431425
H	 -2.245265	 1.602650	 0.432430
H	 -1.779332	 0.308348	 1.496285
C	 -3.960546	 -0.461025	 -0.060175
H	 -2.395034	 -0.026811	 -1.468912
H	 -2.024850	 -1.327147	 -0.371646
H	 -4.472726	 -1.168004	 -0.705284
H	 -4.465146	 0.496508	 -0.151489
H	 -4.081218	 -0.800940	 0.964585

16 12 9 6 F
12 9 6 10 F
5 3 4 7 F
1 2 3 5 F
