%nprocshared=1
%mem=2GB
#HF/6-31G* nosymm scf=tight opt=ModRedundant

Mol

0 1
H	 4.529490	 0.167147	 -0.893803
C	 3.703481	 -0.412796	 -0.494898
C	 2.405274	 0.392945	 -0.514964
H	 3.614826	 -1.314910	 -1.093694
H	 3.967988	 -0.711774	 0.515496
C	 1.217350	 -0.386724	 0.039429
H	 2.172336	 0.703279	 -1.528780
H	 2.538439	 1.304494	 0.065327
N	 0.000003	 0.397874	 -0.023260
H	 1.067988	 -1.283591	 -0.555789
H	 1.443431	 -0.724638	 1.056326
C	 -1.217365	 -0.386708	 0.039277
H	 -0.000031	 1.072115	 0.718656
C	 -2.452633	 0.504241	 -0.042481
H	 -1.215291	 -1.074557	 -0.802042
H	 -1.269739	 -1.003477	 0.942735
C	 -3.758029	 -0.289423	 -0.010781
H	 -2.394220	 1.093569	 -0.952170
H	 -2.440793	 1.210787	 0.785871
H	 -3.816659	 -0.981993	 -0.845726
H	 -4.617837	 0.370165	 -0.069296
H	 -3.847478	 -0.867502	 0.904682

10 6 9 12 F
