%nprocshared=4
%mem=2GB
#HF/cc-pVTZ nosymm scf=tight opt=ModRedundant

Mol

0 1
H	 2.454355	 -1.419018	 -1.025102
N	 1.475375	 -1.233990	 -1.041542
C	 1.221403	 0.188933	 -0.938440
C	 0.796911	 -1.973319	 0.003888
H	 1.723190	 0.698163	 -1.752226
H	 1.590934	 0.608833	 -0.001024
C	 -0.272670	 0.441707	 -1.027473
H	 0.991102	 -3.030907	 -0.127065
H	 1.139623	 -1.690031	 1.000841
C	 -0.696606	 -1.717712	 -0.086380
H	 -0.620930	 0.165821	 -2.027069
H	 -0.469247	 1.498592	 -0.891567
N	 -0.976577	 -0.298712	 -0.000000
H	 -1.199715	 -2.222222	 0.729996
H	 -1.074071	 -2.142363	 -1.021143
C	 -2.391156	 -0.021003	 -0.000000
H	 -2.853954	 -0.458728	 -0.875714
H	 -2.853954	 -0.458728	 0.875714
H	 -2.614037	 1.049773	 -0.000000

7 13 16 19 F
