%nprocshared=1
%mem=2GB
#HF/6-31G* nosymm scf=tight 

Mol

0 1
O	 3.225979	 0.970355	 -0.599647
C	 2.701189	 0.057885	 -0.047330
C	 1.245376	 -0.013843	 0.345420
O	 3.347903	 -1.046386	 0.304773
C	 0.455112	 1.231400	 -0.050772
H	 0.838542	 -0.913825	 -0.103701
H	 1.208210	 -0.175333	 1.419774
C	 -0.998893	 1.219485	 0.433193
H	 0.482531	 1.345121	 -1.130325
H	 0.957290	 2.103070	 0.354729
C	 -1.883438	 0.145884	 -0.207175
H	 -1.431207	 2.195402	 0.224832
H	 -1.019646	 1.105716	 1.516076
C	 -1.662024	 -1.243644	 0.393814
H	 -2.928946	 0.426385	 -0.088635
H	 -1.699375	 0.098559	 -1.278088
C	 -2.536920	 -2.325482	 -0.242043
H	 -1.857331	 -1.207918	 1.464241
H	 -0.614450	 -1.520210	 0.285187
C	 -2.312480	 -3.709379	 0.366362
H	 -3.584042	 -2.050204	 -0.135274
H	 -2.339953	 -2.365685	 -1.311327
H	 -2.946358	 -4.454201	 -0.104856
H	 -2.534914	 -3.710885	 1.429713
H	 -1.281087	 -4.028432	 0.245094
C	 4.728119	 -1.109107	 -0.004993
H	 4.882018	 -1.033965	 -1.071845
H	 5.068212	 -2.067527	 0.355250
H	 5.265056	 -0.311663	 0.488280

21 17 14 11 F
17 14 11 15 F
6 3 5 9 F
11 8 5 9 F
2 4 26 27 F
1 2 4 26 F
6 3 2 1 F
