%nprocshared=4
%mem=2GB
#HF/6-31G* nosymm scf=tight opt=ModRedundant

Mol

0 1
H	 -4.342002	 -0.648915	 -0.736665
C	 -3.480727	 -0.555138	 -0.104153
C	 -2.295204	 -0.888759	 -0.559383
H	 -3.615431	 -0.186425	 0.895255
O	 -1.180634	 -0.819263	 0.215062
H	 -2.138049	 -1.253197	 -1.559224
C	 0.051604	 -1.018856	 -0.387932
C	 1.043764	 0.054862	 -0.001873
H	 -0.017620	 -1.041351	 -1.469781
H	 0.437898	 -1.966374	 -0.042284
F	 2.212596	 -0.199467	 -0.571921
F	 0.652529	 1.252447	 -0.405055
F	 1.230877	 0.110694	 1.300533

3 5 7 9 F
