%nprocshared=1
%mem=2GB
#HF/6-31G* nosymm scf=tight opt=ModRedundant

Mol

0 1
H	 3.729471	 -0.928294	 -0.070608
O	 2.826016	 -1.159218	 0.122261
C	 2.077727	 -0.067559	 -0.035091
C	 0.624473	 -0.343591	 0.253101
O	 2.542965	 0.974826	 -0.363729
C	 -0.265902	 0.883932	 0.072916
H	 0.324016	 -1.163849	 -0.390541
H	 0.565024	 -0.726111	 1.268924
C	 -1.728698	 0.646073	 0.462102
H	 -0.209144	 1.219470	 -0.958188
H	 0.135059	 1.692851	 0.673903
C	 -2.743340	 1.532555	 -0.265640
H	 -1.824830	 0.816107	 1.531966
H	 -1.982504	 -0.400481	 0.299428
C	 -4.171804	 1.324414	 0.236998
H	 -2.463981	 2.576336	 -0.137092
H	 -2.714236	 1.337136	 -1.334446
H	 -4.872182	 1.961378	 -0.294095
H	 -4.252127	 1.554169	 1.295577
H	 -4.490007	 0.295024	 0.097929

12 9 6 10 F
