%nprocshared=1
%mem=2GB
#HF/6-31G* nosymm scf=tight opt=ModRedundant

Mol

0 1
H	 -3.420663	 1.227371	 -1.044276
O	 -3.452007	 0.283848	 -0.965577
C	 -3.181085	 -0.079926	 0.364119
C	 -1.765924	 0.277073	 0.805136
H	 -3.327791	 -1.152017	 0.410903
H	 -3.905698	 0.375695	 1.036898
C	 -0.677594	 -0.417312	 -0.014550
H	 -1.637766	 1.358238	 0.744969
H	 -1.659588	 0.017670	 1.857098
C	 0.738335	 -0.034840	 0.421385
H	 -0.814977	 -0.178223	 -1.064632
H	 -0.802730	 -1.495410	 0.071702
C	 1.031258	 1.457303	 0.243086
H	 0.876862	 -0.318914	 1.461833
H	 1.462266	 -0.612719	 -0.151837
C	 2.466758	 1.874421	 0.582952
H	 0.336745	 2.035225	 0.850831
H	 0.828334	 1.730525	 -0.790349
C	 2.841287	 1.720559	 2.058235
H	 2.599691	 2.914986	 0.296870
H	 3.161825	 1.301550	 -0.027707
H	 2.155023	 2.273166	 2.694479
H	 3.841163	 2.100886	 2.243805
H	 2.824469	 0.683265	 2.375884

13 10 7 11 F
