%nprocshared=4
%mem=2GB
#HF/cc-pVTZ nosymm scf=tight opt=ModRedundant

Mol

0 1
H	 -3.436473	 1.252944	 -1.023892
O	 -3.458596	 0.315260	 -0.960865
C	 -3.176635	 -0.080824	 0.355601
C	 -1.763371	 0.265266	 0.799691
H	 -3.321825	 -1.153438	 0.379502
H	 -3.895468	 0.357385	 1.043382
C	 -1.638995	 1.640997	 1.447933
H	 -1.412916	 -0.499724	 1.490947
H	 -1.113016	 0.208518	 -0.069910
C	 -0.221585	 1.958384	 1.917172
H	 -2.322833	 1.703802	 2.287179
H	 -1.960562	 2.397483	 0.736013
C	 -0.102915	 3.338663	 2.560442
H	 0.096495	 1.193554	 2.619133
H	 0.460558	 1.899074	 1.071583
C	 1.314935	 3.736148	 2.974635
H	 -0.755731	 3.386579	 3.428996
H	 -0.477289	 4.080624	 1.860472
C	 1.909298	 2.896762	 4.103045
H	 1.302359	 4.776325	 3.285520
H	 1.968462	 3.688000	 2.107453
H	 1.273582	 2.921158	 4.982447
H	 2.883835	 3.274520	 4.390828
H	 2.035150	 1.860074	 3.814874

7 4 3 2 F
