%nprocshared=4
%mem=2GB
#HF/cc-pVTZ nosymm scf=tight opt=ModRedundant

Mol

0 1
H	 2.867672	 -0.456275	 0.875795
C	 2.403497	 -0.020426	 0.000000
N	 0.989899	 -0.304564	 0.000000
H	 2.867672	 -0.456275	 -0.875795
H	 2.620366	 1.051270	 0.000000
C	 0.401572	 -0.185759	 1.318076
C	 0.685001	 -1.595831	 -0.580719
H	 0.852441	 -0.891945	 2.022180
H	 0.577453	 0.813858	 1.698285
C	 -1.091736	 -0.440945	 1.246287
H	 1.068843	 -1.630830	 -1.593718
H	 1.157188	 -2.408076	 -0.019433
C	 -0.815590	 -1.814787	 -0.603720
H	 -1.523895	 -0.445163	 2.237170
H	 -1.567707	 0.346713	 0.665644
O	 -1.364044	 -1.685938	 0.674459
H	 -1.048139	 -2.812069	 -0.950093
H	 -1.277270	 -1.098221	 -1.280096

6 3 2 5 F
