%nprocshared=1
%mem=2GB
#HF/6-31G* nosymm scf=tight opt=ModRedundant

Mol

0 1
O	 0.625848	 1.349995	 -0.000749
C	 0.486307	 0.169203	 0.000779
C	 1.608116	 -0.841643	 0.000302
O	 -0.698257	 -0.426125	 0.001050
C	 2.990107	 -0.200498	 -0.000684
H	 1.468623	 -1.481519	 -0.865924
H	 1.469683	 -1.481289	 0.866878
H	 3.129736	 0.423364	 -0.875135
H	 3.757882	 -0.966877	 -0.001197
H	 3.130964	 0.423383	 0.873533
C	 -1.844423	 0.389607	 0.220788
C	 -3.059395	 -0.512548	 0.173144
H	 -1.884334	 1.154503	 -0.542708
H	 -1.748807	 0.881253	 1.179294
H	 -3.137894	 -1.001593	 -0.791134
H	 -3.959550	 0.071119	 0.336551
H	 -3.001754	 -1.276352	 0.940306

11 4 2 3 F
