%nprocshared=1
%mem=2GB
#HF/6-31G* nosymm scf=tight opt=ModRedundant

Mol

0 1
H	 3.116701	 0.420863	 2.139340
O	 3.835054	 0.222761	 1.556420
C	 3.750502	 -1.116024	 1.138617
C	 2.625440	 -1.364158	 0.139921
H	 4.703987	 -1.341517	 0.678516
H	 3.641845	 -1.777145	 1.997623
C	 1.224847	 -1.119470	 0.706785
H	 2.785526	 -0.726202	 -0.725383
H	 2.700585	 -2.393554	 -0.206582
C	 0.115918	 -1.429151	 -0.302766
H	 1.145119	 -0.084407	 1.027183
H	 1.081163	 -1.734795	 1.595081
C	 -1.309753	 -1.282496	 0.241564
H	 0.236038	 -0.788196	 -1.174313
H	 0.245745	 -2.449523	 -0.657290
C	 -2.037799	 -0.007733	 -0.193645
H	 -1.890610	 -2.142323	 -0.085726
H	 -1.285946	 -1.330893	 1.329189
C	 -3.489788	 0.042957	 0.286558
H	 -2.017067	 0.064384	 -1.280144
H	 -1.513726	 0.868678	 0.179924
C	 -4.216917	 1.317354	 -0.141063
H	 -4.025645	 -0.823308	 -0.095450
H	 -3.513059	 -0.038752	 1.371301
H	 -4.239342	 1.411634	 -1.223113
H	 -5.243387	 1.322503	 0.212445
H	 -3.726170	 2.201406	 0.256408

14 10 13 16 F
