%nprocshared=4
%mem=2GB
#HF/cc-pVTZ nosymm scf=tight opt=ModRedundant

Mol

0 1
H	 -0.000342	 -0.223902	 -3.352295
C	 -0.027146	 0.371068	 -2.446756
C	 0.024493	 -0.518541	 -1.216015
H	 -0.932586	 0.964979	 -2.449855
H	 0.819708	 1.049865	 -2.473332
N	 -0.042516	 0.263377	 -0.000000
H	 -0.822211	 -1.197105	 -1.225584
H	 0.921114	 -1.142847	 -1.255206
C	 0.024493	 -0.518541	 1.216015
H	 0.682568	 0.950412	 -0.000000
C	 -0.741195	 0.151192	 2.344720
H	 -0.409952	 -1.491985	 1.013253
H	 1.055068	 -0.700099	 1.532519
H	 -1.777620	 0.297907	 2.067482
H	 -0.705604	 -0.452383	 3.244242
H	 -0.316548	 1.121725	 2.582153

12 9 6 3 F
