%nprocshared=4
%mem=2GB
#HF/cc-pVTZ nosymm scf=tight opt=ModRedundant

Mol

0 1
O	 -0.987960	 1.395427	 2.493358
C	 -0.577743	 1.761122	 1.440068
C	 0.682494	 1.166980	 0.842700
C	 -1.295283	 2.817875	 0.634352
C	 0.376695	 -0.140025	 0.100361
H	 1.369577	 0.970592	 1.656001
H	 1.148254	 1.875346	 0.165832
C	 1.630207	 -0.772146	 -0.501001
H	 -0.096366	 -0.822470	 0.795136
H	 -0.343013	 0.048574	 -0.692577
C	 2.907848	 -0.545876	 0.309149
H	 1.772784	 -0.391628	 -1.509394
H	 1.468529	 -1.842059	 -0.599744
C	 3.373802	 0.906639	 0.372125
H	 3.699140	 -1.146831	 -0.127906
H	 2.764321	 -0.923458	 1.318191
H	 3.519798	 1.311927	 -0.623875
H	 4.316899	 0.983758	 0.900700
H	 2.661122	 1.540651	 0.885346
H	 -0.683681	 3.713679	 0.595934
H	 -2.246197	 3.050216	 1.088608
H	 -1.442034	 2.486379	 -0.387492

3 5 8 12 F
