%nprocshared=4
%mem=2GB
#HF/cc-pVTZ nosymm scf=tight opt=ModRedundant

Mol

0 1
O	 -2.081319	 -0.951530	 -0.502732
N	 -1.613558	 0.006676	 0.014756
C	 -0.329345	 -0.171618	 0.743966
O	 -2.068523	 1.100482	 -0.024385
C	 0.835904	 0.041968	 -0.213982
H	 -0.346048	 -1.174374	 1.137184
H	 -0.333613	 0.555559	 1.538590
C	 2.177039	 -0.130175	 0.494460
H	 0.754456	 -0.665923	 -1.030569
H	 0.765464	 1.037260	 -0.637266
C	 2.806785	 -1.492284	 0.225093
H	 2.039608	 -0.000556	 1.563922
H	 2.857906	 0.652637	 0.173473
H	 2.162697	 -2.294952	 0.566522
H	 2.984961	 -1.637765	 -0.834531
H	 3.756255	 -1.587921	 0.737461

11 8 5 9 F
