%nprocshared=4
%mem=2GB
#HF/cc-pVTZ nosymm scf=tight opt=ModRedundant

Mol

0 1
O	 1.708648	 1.535605	 0.446960
C	 1.301129	 0.818750	 1.296128
C	 -0.012319	 0.080247	 1.262835
O	 1.965155	 0.567928	 2.412629
C	 -0.824290	 0.329213	 -0.000115
H	 0.209705	 -0.974759	 1.385786
H	 -0.566053	 0.370452	 2.149740
C	 -2.146151	 -0.432825	 -0.000068
H	 -0.235629	 0.045390	 -0.865098
H	 -1.012067	 1.392216	 -0.100391
C	 -3.366283	 0.483552	 0.000557
H	 -2.189286	 -1.084450	 -0.869996
H	 -2.188867	 -1.085083	 0.869399
C	 -4.687436	 -0.278003	 0.000108
H	 -3.325150	 1.134819	 -0.867957
H	 -3.325087	 1.133730	 0.869885
H	 -4.773783	 -0.912098	 -0.876078
H	 -5.531922	 0.401392	 0.000363
H	 -4.773901	 -0.912898	 0.875703
C	 3.219579	 1.197778	 2.577052
H	 3.899352	 0.904751	 1.790759
H	 3.593730	 0.870691	 3.533541
H	 3.111043	 2.272174	 2.566749

9 5 8 12 F
