%nprocshared=1
%mem=2GB
#HF/6-31G* nosymm scf=tight 

Mol

0 1
O	 -2.042549	 -1.228399	 -0.269030
C	 -1.653912	 -0.146171	 0.050137
C	 -0.332303	 0.024011	 0.778412
C	 -2.438579	 1.106236	 -0.272369
C	 -0.265944	 1.387443	 1.484473
H	 -0.190122	 -0.774233	 1.501581
H	 0.460330	 -0.041681	 0.041297
C	 1.063492	 1.612757	 2.206183
H	 -1.081319	 1.470906	 2.200909
H	 -0.420108	 2.167870	 0.745346
C	 1.135697	 2.971527	 2.901695
H	 1.215941	 0.822725	 2.938327
H	 1.877811	 1.528811	 1.490358
H	 0.353437	 3.072509	 3.648639
H	 1.019001	 3.782792	 2.189182
H	 2.089608	 3.104831	 3.402005
H	 -3.277823	 0.863061	 -0.908988
H	 -1.806773	 1.843019	 -0.759671
H	 -2.802853	 1.554979	 0.648059

11 8 5 9 F
9 5 3 2 F
