%nprocshared=1
%mem=2GB
#HF/6-31G* nosymm scf=tight 

Mol

0 1
O	 3.811942	 -1.246000	 2.459977
C	 3.014090	 -1.127262	 1.586825
C	 1.517343	 -1.048823	 1.766779
O	 3.347903	 -1.046386	 0.304773
C	 1.084151	 -1.125195	 3.229184
H	 1.187416	 -0.130619	 1.292184
H	 1.079409	 -1.856927	 1.186366
C	 -0.435910	 -1.152554	 3.421949
H	 1.508893	 -0.286928	 3.773264
H	 1.514324	 -2.017473	 3.671014
C	 -1.161738	 0.131843	 3.011329
H	 -0.638707	 -1.345316	 4.472872
H	 -0.855675	 -1.995275	 2.874565
C	 -2.658854	 0.095402	 3.324883
H	 -0.707667	 0.978693	 3.523659
H	 -1.030321	 0.312530	 1.946879
C	 -3.395409	 1.371664	 2.914061
H	 -2.799058	 -0.071890	 4.391462
H	 -3.111538	 -0.757462	 2.821495
C	 -4.889205	 1.328687	 3.234103
H	 -2.943679	 2.225028	 3.415411
H	 -3.260058	 1.538223	 1.847422
H	 -5.383347	 2.246710	 2.931345
H	 -5.058306	 1.197932	 4.299234
H	 -5.376902	 0.505446	 2.719612
C	 4.728119	 -1.109107	 -0.004993
H	 4.882018	 -1.033965	 -1.071845
H	 5.068212	 -2.067527	 0.355250
H	 5.265056	 -0.311663	 0.488280

21 17 14 11 F
17 14 11 15 F
15 11 8 5 F
6 3 5 9 F
11 8 5 9 F
1 2 4 26 F
6 3 2 1 F
