%nprocshared=1
%mem=2GB
#HF/6-31G* nosymm scf=tight opt=ModRedundant

Mol

0 1
O	 1.361707	 2.141489	 -0.024529
C	 0.272263	 2.612548	 -0.090364
C	 -1.021903	 1.836017	 -0.090804
O	 0.049305	 3.918340	 -0.169948
C	 -0.823008	 0.326187	 0.001381
H	 -1.622374	 2.205291	 0.736110
H	 -1.563114	 2.107514	 -0.993079
C	 -2.149452	 -0.435131	 -0.000098
H	 -0.264985	 0.093422	 0.902835
H	 -0.206662	 -0.004675	 -0.828653
C	 -3.368779	 0.488503	 -0.000883
H	 -2.193746	 -1.087250	 -0.871175
H	 -2.195311	 -1.087803	 0.870418
C	 -4.693822	 -0.272754	 -0.001129
H	 -3.325798	 1.139422	 -0.871284
H	 -3.326423	 1.139959	 0.869145
H	 -4.781274	 -0.907928	 -0.878124
H	 -5.538651	 0.408946	 -0.001420
H	 -4.781694	 -0.907783	 0.875984
C	 1.184348	 4.764855	 -0.176710
H	 1.755229	 4.642322	 0.732470
H	 0.801585	 5.771172	 -0.245220
H	 1.816593	 4.546098	 -1.025190

9 5 8 12 F
