%nprocshared=4
%mem=2GB
#HF/cc-pVTZ nosymm scf=tight opt=ModRedundant

Mol

0 1
O	 -1.278239	 1.034789	 -0.784693
C	 -1.204115	 0.062668	 -0.112312
C	 -2.386398	 -0.667698	 0.460323
O	 -0.068058	 -0.518372	 0.226882
H	 -2.382952	 -1.693172	 0.114333
H	 -3.296656	 -0.175702	 0.158400
H	 -2.312537	 -0.685191	 1.540100
C	 1.169086	 0.037484	 -0.230612
C	 2.185827	 -1.084963	 -0.171763
C	 1.548975	 1.228515	 0.630630
H	 1.030502	 0.359044	 -1.251632
H	 1.875715	 -1.915070	 -0.793456
H	 3.147699	 -0.733157	 -0.524958
H	 2.303728	 -1.443565	 0.843835
H	 2.491703	 1.643160	 0.293236
H	 0.797565	 2.003157	 0.567687
H	 1.659079	 0.928505	 1.666562

11 8 4 2 F
