%nprocshared=1
%mem=2GB
#HF/6-31G* nosymm scf=tight 

Mol

0 1
H	 -3.161837	 0.500524	 -0.000234
C	 -2.367097	 -0.232926	 -0.000000
O	 -1.158440	 0.455814	 -0.000122
H	 -2.468853	 -0.861886	 -0.882833
H	 -2.468942	 -0.861421	 0.883154
C	 -0.029776	 -0.365156	 0.000148
C	 1.024166	 0.250154	 -0.903877
H	 -0.292312	 -1.364376	 -0.349899
H	 0.356839	 -0.471466	 1.014611
C	 2.301812	 -0.585761	 -0.965120
H	 0.601924	 0.362911	 -1.897687
H	 1.246616	 1.249552	 -0.542744
H	 2.104871	 -1.583429	 -1.347606
H	 3.036093	 -0.123543	 -1.616297
H	 2.753858	 -0.691122	 0.017202

6 3 2 4 F
11 7 6 8 F
