%nprocshared=1
%mem=2GB
#HF/6-31G* nosymm scf=tight 

Mol

0 1
H	 -2.172150	 0.880146	 0.502514
C	 -2.018062	 -0.000025	 -0.114509
O	 -0.774054	 0.001095	 -0.743181
H	 -2.760490	 0.003458	 -0.901350
H	 -2.173624	 -0.884374	 0.496163
C	 -0.562849	 0.821299	 -1.878605
C	 0.890732	 0.546260	 -2.257374
C	 -1.488249	 0.418343	 -3.031190
C	 -0.740976	 2.302769	 -1.531282
H	 1.026171	 -0.506556	 -2.477980
H	 1.546431	 0.804534	 -1.433524
H	 1.183807	 1.123719	 -3.128183
H	 -1.407965	 -0.646569	 -3.222360
H	 -1.213841	 0.949325	 -3.936927
H	 -2.527068	 0.650055	 -2.822099
H	 -0.135484	 2.561781	 -0.669108
H	 -0.430926	 2.924234	 -2.365058
H	 -1.773674	 2.549836	 -1.309641

2 3 6 7 F
