%nprocshared=1
%mem=2GB
#HF/6-31G* nosymm scf=tight 

Mol

0 1
O	 0.719185	 0.918941	 1.832588
C	 -0.245068	 1.048580	 1.150180
C	 -1.180308	 2.226658	 1.192666
O	 -0.632575	 0.154573	 0.251549
H	 -2.181736	 1.890673	 1.435986
H	 -0.837853	 2.934943	 1.932188
H	 -1.220103	 2.697862	 0.217402
C	 0.160891	 -1.019931	 0.106212
C	 1.589627	 -0.672828	 0.480843
H	 0.089836	 -1.367806	 -0.916050
H	 -0.238459	 -1.792301	 0.749618
C	 2.246377	 0.346236	 -0.452210
H	 2.163194	 -1.597435	 0.473358
H	 1.604769	 -0.303424	 1.502885
C	 3.691736	 0.652107	 -0.061850
H	 2.219579	 -0.032311	 -1.472055
H	 1.666466	 1.263317	 -0.447249
H	 4.134505	 1.377213	 -0.737283
H	 4.305508	 -0.243868	 -0.089969
H	 3.748266	 1.059562	 0.943567

16 12 9 8 F
12 9 8 10 F
1 2 4 8 F
