%nprocshared=4
%mem=2GB
#HF/cc-pVTZ nosymm scf=tight opt=ModRedundant

Mol

0 1
H	 2.867672	 -0.456275	 0.875795
C	 2.403497	 -0.020426	 0.000000
N	 0.989899	 -0.304564	 0.000000
H	 2.867672	 -0.456275	 -0.875795
H	 2.620366	 1.051270	 0.000000
C	 0.315497	 0.242468	 -1.159096
C	 0.338896	 0.126057	 1.219970
H	 0.405308	 1.332556	 -1.196334
H	 0.772220	 -0.155117	 -2.058017
C	 -1.153373	 -0.134300	 -1.132445
H	 0.812787	 -0.356943	 2.066649
H	 0.430467	 1.207389	 1.361674
C	 -1.130575	 -0.247720	 1.185494
H	 -1.682847	 0.345629	 -1.943588
H	 -1.254406	 -1.211973	 -1.244306
O	 -1.759359	 0.280769	 0.055681
H	 -1.643570	 0.150225	 2.049845
H	 -1.230428	 -1.331262	 1.193579

6 3 2 5 F
