%nprocshared=4
%mem=2GB
#HF/6-31G* nosymm scf=tight opt=ModRedundant

Mol

0 1
H	 4.807491	 3.055789	 -0.364784
C	 4.525422	 2.010279	 -0.441381
C	 3.133984	 1.769354	 0.142598
H	 4.560142	 1.734401	 -1.491156
H	 5.278319	 1.425413	 0.080038
C	 2.707543	 0.302185	 0.056719
H	 2.412949	 2.387007	 -0.382963
H	 3.121195	 2.087287	 1.183966
C	 1.325746	 0.026972	 0.650151
H	 2.716555	 -0.019166	 -0.978798
H	 3.434552	 -0.310584	 0.584936
C	 0.169600	 0.576866	 -0.172154
H	 1.166833	 -1.047454	 0.728420
H	 1.255978	 0.409067	 1.666179
C	 -1.181045	 0.701995	 0.511084
O	 0.307093	 0.883477	 -1.318231
C	 -2.285934	 -0.139295	 -0.145128
H	 -1.449051	 1.751551	 0.493206
H	 -1.071135	 0.403303	 1.551943
C	 -3.651768	 0.085446	 0.506485
H	 -2.346596	 0.110469	 -1.202272
H	 -2.034737	 -1.195320	 -0.088721
C	 -4.759797	 -0.746382	 -0.137905
H	 -3.908762	 1.140117	 0.445781
H	 -3.588286	 -0.154158	 1.565709
H	 -4.868882	 -0.505166	 -1.191300
H	 -4.548009	 -1.809175	 -0.062213
H	 -5.715422	 -0.564821	 0.343442

16 12 15 17 F
