%nprocshared=1
%mem=2GB
#HF/6-31G* nosymm scf=tight opt=ModRedundant

Mol

0 1
H	 -2.596135	 -1.433884	 -2.852166
O	 -2.535961	 -1.204968	 -1.935716
C	 -1.237511	 -0.755039	 -1.645574
C	 -1.177863	 -0.397191	 -0.171080
H	 -0.504639	 -1.528427	 -1.871579
H	 -0.989620	 0.115888	 -2.250864
C	 0.198102	 0.111031	 0.262842
H	 -1.451079	 -1.276760	 0.405496
H	 -1.935847	 0.355049	 0.029099
C	 1.331804	 -0.827780	 -0.158768
H	 0.361943	 1.100838	 -0.156218
H	 0.217265	 0.229072	 1.345532
C	 2.723619	 -0.410569	 0.329459
H	 1.342964	 -0.912588	 -1.244120
H	 1.116806	 -1.824343	 0.220779
C	 3.243875	 0.895854	 -0.272975
H	 3.424222	 -1.207124	 0.091250
H	 2.714788	 -0.329854	 1.414619
H	 3.251977	 0.848779	 -1.358681
H	 2.637085	 1.747371	 0.016682
H	 4.259473	 1.094070	 0.055697

8 4 7 10 F
