%nprocshared=4
%mem=2GB
#HF/cc-pVTZ nosymm scf=tight opt=ModRedundant

Mol

0 1
H	 -2.027550	 2.271215	 -2.211894
C	 -1.049428	 2.607514	 -1.841669
C	 -0.872352	 2.520220	 -0.350054
O	 -0.236183	 3.008871	 -2.599859
C	 -1.216901	 1.136108	 0.207794
H	 0.142223	 2.807502	 -0.106249
H	 -1.542559	 3.258000	 0.085616
C	 -0.247837	 0.040196	 -0.230469
H	 -1.227544	 1.195844	 1.290688
H	 -2.228272	 0.869844	 -0.089571
C	 1.181757	 0.280428	 0.247371
H	 -0.259600	 -0.030819	 -1.314870
H	 -0.591284	 -0.923375	 0.136958
C	 2.151032	 -0.811012	 -0.202643
H	 1.515939	 1.247397	 -0.115449
H	 1.191514	 0.341223	 1.333422
C	 3.580021	 -0.656538	 0.320835
H	 2.170545	 -0.847575	 -1.289412
H	 1.766632	 -1.772905	 0.124928
C	 4.327657	 0.562694	 -0.213579
H	 4.138806	 -1.549270	 0.057813
H	 3.561991	 -0.620783	 1.406976
H	 4.355973	 0.557257	 -1.298551
H	 3.867136	 1.491650	 0.100501
H	 5.351524	 0.571613	 0.142204

3 5 8 12 F
