%nprocshared=4
%mem=2GB
#HF/cc-pVTZ nosymm scf=tight opt=ModRedundant

Mol

0 1
H	 -3.436473	 1.252944	 -1.023892
O	 -3.458596	 0.315260	 -0.960865
C	 -3.176635	 -0.080824	 0.355601
C	 -1.763371	 0.265266	 0.799691
H	 -3.321825	 -1.153438	 0.379502
H	 -3.895468	 0.357385	 1.043382
C	 -0.673390	 -0.426948	 -0.013392
H	 -1.631049	 1.344913	 0.747560
H	 -1.664587	 -0.001624	 1.849167
C	 -0.957093	 -0.436894	 -1.513187
H	 -0.554821	 -1.444799	 0.341338
H	 0.275232	 0.071890	 0.170410
C	 -1.376462	 0.930837	 -2.048435
H	 -0.071647	 -0.784395	 -2.036750
H	 -1.741605	 -1.159696	 -1.727557
C	 -2.729285	 1.433429	 -1.541366
H	 -1.390728	 0.901251	 -3.135528
H	 -0.615854	 1.657561	 -1.776463
C	 -3.930612	 0.616489	 -2.011010
H	 -2.858364	 2.460320	 -1.869407
H	 -2.716429	 1.462807	 -0.454908
H	 -3.966175	 0.564602	 -3.094578
H	 -4.857187	 1.066011	 -1.672439
H	 -3.904654	 -0.398131	 -1.632226

11 7 4 3 F
