%nprocshared=1
%mem=2GB
#HF/6-31G* nosymm scf=tight 

Mol

0 1
H	 1.104027	 -0.878065	 -1.050897
O	 0.822702	 -0.161412	 -1.603272
C	 0.408990	 0.901609	 -0.795316
C	 -0.793441	 0.596080	 0.058728
H	 0.179660	 1.720760	 -1.467328
H	 1.223407	 1.242056	 -0.156686
C	 -1.530462	 -0.493172	 -0.025500
H	 -1.041549	 1.355811	 0.783803
H	 -1.092586	 -1.461565	 -0.186463
H	 -2.602122	 -0.450675	 0.050101

5 3 2 1 F
5 3 4 7 F
