%nprocshared=4
%mem=2GB
#HF/cc-pVTZ nosymm scf=tight opt=ModRedundant

Mol

0 1
H	 -0.562840	 1.123843	 1.249295
C	 0.454130	 1.005428	 0.893051
N	 0.526300	 -0.128137	 0.000000
H	 1.086194	 0.834506	 1.755211
H	 0.754467	 1.948009	 0.430547
C	 -0.247113	 0.037112	 -1.209233
H	 1.477239	 -0.321162	 -0.228290
H	 -0.996493	 -0.743733	 -1.271440
H	 0.397975	 -0.057351	 -2.073512
H	 -0.763794	 0.997171	 -1.271673

2 3 6 8 F
