%nprocshared=1
%mem=2GB
#HF/6-31G* nosymm scf=tight opt=ModRedundant

Mol

0 1
O	 -0.291628	 1.323815	 -0.000732
C	 -0.449655	 0.146360	 0.000961
C	 -1.783294	 -0.549321	 -0.000296
O	 0.550821	 -0.724572	 0.000672
H	 -1.863538	 -1.185371	 -0.874187
H	 -2.574672	 0.185258	 -0.002793
H	 -1.866414	 -1.182381	 0.875436
C	 1.316799	 -0.821700	 -1.186815
H	 0.694052	 -1.123689	 -2.016480
H	 2.069230	 -1.569764	 -0.991888
H	 1.781309	 0.126186	 -1.417216

8 4 2 1 F
