%nprocshared=4
%mem=2GB
#HF/cc-pVTZ nosymm scf=tight opt=ModRedundant

Mol

0 1
H	 3.721907	 -0.933076	 -0.066039
O	 2.824271	 -1.154299	 0.131461
C	 2.076458	 -0.067370	 -0.038225
C	 0.626018	 -0.337582	 0.258241
O	 2.538288	 0.965419	 -0.381593
C	 -0.267326	 0.883135	 0.076490
H	 0.325620	 -1.161483	 -0.378003
H	 0.574537	 -0.713685	 1.275261
C	 -1.726822	 0.642622	 0.463839
H	 -0.210803	 1.217591	 -0.953497
H	 0.129920	 1.693110	 0.675679
C	 -2.172868	 -0.818269	 0.434158
H	 -2.353497	 1.208677	 -0.218886
H	 -1.911876	 1.054708	 1.453479
C	 -3.660526	 -0.985832	 0.726173
H	 -1.947921	 -1.239768	 -0.541942
H	 -1.605942	 -1.397982	 1.155603
H	 -3.951174	 -2.029553	 0.696958
H	 -4.264174	 -0.453409	 -0.001037
H	 -3.912014	 -0.600035	 1.708552

12 9 6 10 F
