%nprocshared=4
%mem=2GB
#HF/cc-pVTZ nosymm scf=tight opt=ModRedundant

Mol

0 1
H	 2.867672	 -0.456275	 0.875795
C	 2.403497	 -0.020426	 0.000000
N	 0.989899	 -0.304564	 0.000000
H	 2.867672	 -0.456275	 -0.875795
H	 2.620366	 1.051270	 0.000000
C	 0.707114	 -1.705844	 0.232412
C	 0.332934	 0.155717	 -1.205863
H	 1.142793	 -2.336458	 -0.548775
H	 1.144213	 -2.005799	 1.177769
C	 -0.791652	 -1.933877	 0.276505
H	 0.495485	 1.221651	 -1.315816
H	 0.740468	 -0.334880	 -2.095230
C	 -1.156218	 -0.120146	 -1.124815
H	 -1.012578	 -2.988985	 0.357532
H	 -1.211388	 -1.425989	 1.142513
O	 -1.406601	 -1.474218	 -0.890413
H	 -1.640666	 0.135779	 -2.056716
H	 -1.594819	 0.481597	 -0.331321

6 3 2 5 F
