%nprocshared=4
%mem=2GB
#HF/cc-pVTZ nosymm scf=tight opt=ModRedundant

Mol

0 1
H	 2.867672	 -0.456275	 0.875795
C	 2.403497	 -0.020426	 0.000000
N	 0.989899	 -0.304564	 0.000000
H	 2.867672	 -0.456275	 -0.875795
H	 2.620366	 1.051270	 0.000000
C	 0.187629	 0.878615	 0.232412
C	 0.636182	 -1.352953	 0.934523
H	 0.406822	 1.325023	 1.207306
H	 0.415681	 1.618678	 -0.525893
C	 -1.286669	 0.528850	 0.166426
H	 1.193352	 -2.250266	 0.691379
H	 0.889113	 -1.074393	 1.962226
C	 -0.849641	 -1.645380	 0.850496
H	 -1.891810	 1.385230	 0.429187
H	 -1.542828	 0.222939	 -0.845947
O	 -1.604392	 -0.490196	 1.067393
H	 -1.138882	 -2.360617	 1.607730
H	 -1.083185	 -2.063802	 -0.126478

6 3 2 5 F
