%nprocshared=4
%mem=2GB
#HF/6-31G* nosymm scf=tight opt=ModRedundant

Mol

0 1
O	 -2.042549	 -1.228399	 -0.269030
C	 -1.653912	 -0.146171	 0.050137
C	 -0.332303	 0.024011	 0.778412
C	 -2.438579	 1.106236	 -0.272369
C	 -0.253679	 -0.907243	 1.998435
H	 0.500084	 -0.173004	 0.108562
H	 -0.267199	 1.055996	 1.105049
C	 1.051211	 -0.745541	 2.779553
H	 -0.353566	 -1.942811	 1.677959
H	 -1.099071	 -0.699503	 2.647510
C	 1.128248	 -1.664014	 3.998438
H	 1.893870	 -0.945948	 2.121383
H	 1.150946	 0.289114	 3.099098
H	 1.065396	 -2.708769	 3.707597
H	 0.315978	 -1.464357	 4.691112
H	 2.061946	 -1.525685	 4.534256
H	 -3.277823	 0.863061	 -0.908988
H	 -1.806773	 1.843019	 -0.759671
H	 -2.802853	 1.554979	 0.648059

5 3 2 4 F
