%nprocshared=4
%mem=2GB
#HF/6-31G* nosymm scf=tight opt=ModRedundant

Mol

0 1
O	 1.517926	 0.161294	 0.000176
C	 2.701189	 0.057885	 -0.047330
C	 3.660902	 1.130185	 -0.503301
O	 3.347903	 -1.046386	 0.304773
C	 2.963288	 2.427023	 -0.907854
H	 4.371540	 1.284595	 0.301896
H	 4.234326	 0.719908	 -1.330679
C	 3.913396	 3.488879	 -1.471990
H	 2.428994	 2.828838	 -0.052171
H	 2.207627	 2.195855	 -1.650794
C	 4.924043	 4.049695	 -0.467406
H	 3.311703	 4.310046	 -1.854577
H	 4.445643	 3.080197	 -2.329721
C	 5.774126	 5.181789	 -1.047684
H	 4.391813	 4.413370	 0.410255
H	 5.583915	 3.258623	 -0.118484
C	 6.791223	 5.746420	 -0.054288
H	 5.121305	 5.984085	 -1.387361
H	 6.298289	 4.821790	 -1.931626
C	 7.633439	 6.879064	 -0.640367
H	 6.269211	 6.105694	 0.830059
H	 7.447431	 4.946820	 0.283072
H	 8.344500	 7.258116	 0.087177
H	 7.008303	 7.709758	 -0.955562
H	 8.195072	 6.542018	 -1.507109
C	 4.728119	 -1.109107	 -0.004993
H	 4.882018	 -1.033965	 -1.071845
H	 5.068212	 -2.067527	 0.355250
H	 5.265056	 -0.311663	 0.488280

1 2 4 26 F
