%nprocshared=4
%mem=2GB
#HF/cc-pVTZ nosymm scf=tight opt=ModRedundant

Mol

0 1
O	 -0.488605	 -1.934453	 1.491026
C	 0.562253	 -1.586058	 1.072338
C	 1.216301	 -0.254795	 1.341202
O	 1.317782	 -2.342573	 0.292610
C	 0.389346	 0.656896	 2.239099
H	 2.192164	 -0.463826	 1.762567
H	 1.402118	 0.209891	 0.377942
C	 -0.013376	 0.015838	 3.567895
H	 -0.496784	 0.979154	 1.703381
H	 0.960513	 1.555363	 2.437934
C	 1.115729	 -0.694954	 4.312410
H	 -0.802467	 -0.702977	 3.368383
H	 -0.452001	 0.771599	 4.215748
C	 2.383454	 0.148389	 4.419327
H	 0.774237	 -0.956958	 5.311213
H	 1.358883	 -1.630858	 3.817946
C	 3.082013	 0.368034	 3.080467
H	 3.074968	 -0.329099	 5.109365
H	 2.137074	 1.113335	 4.856411
C	 4.348470	 1.209804	 3.195734
H	 3.329009	 -0.595283	 2.642593
H	 2.393065	 0.847753	 2.390483
H	 4.818941	 1.346629	 2.228821
H	 5.072821	 0.739011	 3.852071
H	 4.129567	 2.193035	 3.598904
C	 0.824678	 -3.623490	 -0.043565
H	 -0.139967	 -3.792406	 0.411591
H	 1.544729	 -4.329140	 0.337866
H	 0.731980	 -3.727573	 -1.114467

2 4 26 27 F
