%nprocshared=1
%mem=2GB
#HF/6-31G* nosymm scf=tight 

Mol

0 1
O	 3.225979	 0.970355	 -0.599647
C	 2.701189	 0.057885	 -0.047330
C	 1.245376	 -0.013843	 0.345420
O	 3.347903	 -1.046386	 0.304773
C	 0.903874	 0.866067	 1.545940
H	 0.665504	 0.252352	 -0.532123
H	 1.016286	 -1.057131	 0.547324
C	 -0.545791	 0.724566	 2.022327
H	 1.110859	 1.903429	 1.300674
H	 1.572175	 0.612429	 2.361700
C	 -1.601931	 1.226899	 1.033721
H	 -0.650035	 1.277760	 2.952828
H	 -0.746924	 -0.317380	 2.267081
C	 -3.022495	 1.165965	 1.598771
H	 -1.370178	 2.253387	 0.753664
H	 -1.563750	 0.643905	 0.116315
C	 -4.086813	 1.660617	 0.617610
H	 -3.072620	 1.758405	 2.510767
H	 -3.250974	 0.141619	 1.888964
C	 -5.502197	 1.600090	 1.190957
H	 -3.859465	 2.683754	 0.325812
H	 -4.041172	 1.066804	 -0.292930
H	 -6.233686	 1.956887	 0.472468
H	 -5.589924	 2.212480	 2.083973
H	 -5.772698	 0.583143	 1.460998
C	 4.728119	 -1.109107	 -0.004993
H	 4.882018	 -1.033965	 -1.071845
H	 5.068212	 -2.067527	 0.355250
H	 5.265056	 -0.311663	 0.488280

21 17 14 11 F
17 14 11 15 F
15 11 8 5 F
6 3 5 9 F
11 8 5 9 F
2 4 26 27 F
1 2 4 26 F
