%nprocshared=4
%mem=2GB
#HF/cc-pVTZ nosymm scf=tight opt=ModRedundant

Mol

0 1
H	 -1.616228	 3.530623	 0.619194
C	 -1.876803	 2.512893	 0.297928
C	 -2.256736	 2.383983	 -1.152219
O	 -1.854530	 1.623198	 1.075908
C	 -3.524744	 1.550768	 -1.360983
H	 -2.358033	 3.376680	 -1.571297
H	 -1.421918	 1.894839	 -1.649333
C	 -4.789956	 2.214817	 -0.822038
H	 -3.640631	 1.363012	 -2.422895
H	 -3.396246	 0.576960	 -0.894744
C	 -5.641798	 2.853761	 -1.915610
H	 -4.510717	 2.970879	 -0.092996
H	 -5.387848	 1.484585	 -0.282859
C	 -6.900381	 3.527547	 -1.372262
H	 -5.037082	 3.575553	 -2.455684
H	 -5.927719	 2.092630	 -2.638262
C	 -7.827821	 4.111512	 -2.439380
H	 -6.614724	 4.314215	 -0.677756
H	 -7.459838	 2.800038	 -0.790848
C	 -7.244121	 5.287623	 -3.218572
H	 -8.743922	 4.435874	 -1.955707
H	 -8.114795	 3.326049	 -3.133643
H	 -6.941812	 6.086551	 -2.549005
H	 -6.377675	 4.999038	 -3.801388
H	 -7.976863	 5.694192	 -3.906144

3 5 8 12 F
