%nprocshared=4
%mem=2GB
#HF/cc-pVTZ nosymm scf=tight opt=ModRedundant

Mol

0 1
H	 1.860482	 -0.730104	 0.664334
C	 1.008677	 -0.804107	 0.004286
O	 -0.000000	 0.000000	 0.518769
H	 1.307598	 -0.480856	 -0.990707
H	 0.698600	 -1.845531	 -0.051779
C	 -1.165153	 0.000000	 -0.236961
H	 -1.229451	 0.882440	 -0.870223
H	 -2.002557	 0.000000	 0.445289
H	 -1.229451	 -0.882440	 -0.870223

2 3 6 7 F
