%nprocshared=1
%mem=2GB
#HF/6-31G* nosymm scf=tight 

Mol

0 1
H	 -4.031818	 -0.453427	 -0.000094
C	 -2.967712	 -0.297022	 -0.000064
C	 -2.458620	 0.992929	 0.000032
C	 -2.109895	 -1.385637	 -0.000122
H	 -3.124998	 1.836319	 0.000077
C	 -1.090278	 1.193236	 0.000070
H	 -2.506361	 -2.384847	 -0.000198
C	 -0.739812	 -1.187531	 -0.000085
H	 -0.678594	 2.184290	 0.000146
C	 -0.226438	 0.104061	 0.000012
H	 -0.072310	 -2.027032	 -0.000131
C	 1.239129	 0.373821	 0.000060
O	 1.956987	 -0.658414	 -0.416801
O	 1.725635	 1.407241	 0.338018
C	 3.362997	 -0.488757	 -0.448802
H	 3.631692	 0.317383	 -1.115687
H	 3.763487	 -1.423323	 -0.809422
H	 3.740880	 -0.274710	 0.540292

12 13 15 16 F
10 12 13 15 F
