%nprocshared=1
%mem=2GB
#HF/6-31G* nosymm scf=tight 
prop=(read,field)

Mol

0 1
H	 3.729756	 -0.928311	 -0.070621
O	 2.826300	 -1.159235	 0.122248
C	 2.078011	 -0.067577	 -0.035104
C	 0.624758	 -0.343609	 0.253088
O	 2.543250	 0.974808	 -0.363742
C	 -0.265618	 0.883915	 0.072903
H	 0.324301	 -1.163867	 -0.390554
H	 0.565308	 -0.726128	 1.268911
C	 -1.728414	 0.646055	 0.462090
H	 -0.208859	 1.219452	 -0.958201
H	 0.135344	 1.692833	 0.673891
C	 -2.482175	 -0.343091	 -0.431438
H	 -2.244980	 1.602632	 0.432417
H	 -1.779047	 0.308331	 1.496272
C	 -3.960262	 -0.461043	 -0.060188
H	 -2.394749	 -0.026829	 -1.468924
H	 -2.024566	 -1.327164	 -0.371659
H	 -4.472442	 -1.168022	 -0.705297
H	 -4.464862	 0.496491	 -0.151501
H	 -4.080934	 -0.800958	 0.964573

@grid.dat /N
