%nprocshared=1
%mem=2GB
#HF/6-31G* nosymm scf=tight 

Mol

0 1
H	 -3.085097	 0.173137	 3.119037
C	 -2.210974	 0.203806	 2.493134
C	 -1.923639	 1.346993	 1.762580
C	 -1.375493	 -0.899591	 2.419528
H	 -2.572421	 2.202028	 1.820568
C	 -0.799511	 1.385673	 0.958016
H	 -1.599840	 -1.784889	 2.986558
C	 -0.249671	 -0.863143	 1.614811
H	 -0.561543	 2.261757	 0.385722
C	 0.041074	 0.281107	 0.881379
H	 0.399633	 -1.714688	 1.554840
C	 1.239129	 0.373821	 0.000060
O	 1.970282	 -0.730723	 0.000018
O	 1.519838	 1.336790	 -0.642399
C	 3.377318	 -0.566646	 -0.000065
H	 3.695437	 -0.028981	 -0.881264
H	 3.789299	 -1.563704	 0.000236
H	 3.695516	 -0.028316	 0.880770

12 13 15 16 F
13 12 10 6 F
