%nprocshared=4
%mem=2GB
#HF/cc-pVTZ nosymm scf=tight opt=ModRedundant

Mol

0 1
H	 0.468784	 -2.188784	 0.842373
C	 -0.315986	 -1.457965	 1.046059
N	 -0.537714	 -0.645117	 0.000000
O	 -0.883726	 -1.422752	 2.091597
C	 -1.522613	 0.412524	 0.000000
H	 0.010742	 -0.788147	 -0.811617
H	 -2.150256	 0.356137	 -0.880771
H	 -1.005621	 1.357208	 0.000000
H	 -2.150256	 0.356137	 0.880771

6 3 5 7 F
