%nprocshared=4
%mem=2GB
#HF/cc-pVTZ nosymm scf=tight opt=ModRedundant

Mol

0 1
O	 0.504397	 0.385138	 0.975922
C	 1.121787	 0.124983	 0.000110
C	 0.838017	 0.654046	 -1.382290
O	 2.167739	 -0.685178	 -0.000678
C	 -0.357272	 1.593807	 -1.445990
H	 1.741833	 1.143556	 -1.730106
H	 0.698434	 -0.203994	 -2.031709
C	 -0.615649	 2.110671	 -2.858223
H	 -0.192831	 2.428469	 -0.773800
H	 -1.237309	 1.079567	 -1.076347
C	 -1.810195	 3.055308	 -2.933140
H	 0.270724	 2.622024	 -3.224421
H	 -0.779518	 1.269897	 -3.527165
H	 -1.661356	 3.924067	 -2.300930
H	 -1.969707	 3.406127	 -3.946134
H	 -2.719228	 2.562130	 -2.606006
C	 3.449556	 -0.089977	 -0.000570
H	 3.585694	 0.522473	 -0.879546
H	 4.155805	 -0.904274	 -0.001389
H	 3.586173	 0.521118	 0.879272

1 2 4 17 F
