%nprocshared=4
%mem=2GB
#HF/6-31G* nosymm scf=tight opt=ModRedundant

Mol

0 1
H	 4.593867	 0.299617	 -0.485965
C	 3.742646	 -0.332906	 -0.255558
C	 2.440513	 0.466328	 -0.280840
H	 3.723339	 -1.137853	 -0.984883
H	 3.915874	 -0.776210	 0.721028
C	 1.217350	 -0.386724	 0.039429
H	 2.298869	 0.921385	 -1.256159
H	 2.505725	 1.283340	 0.435841
N	 0.000003	 0.397874	 -0.023260
H	 1.137198	 -1.187039	 -0.691347
H	 1.352277	 -0.869520	 1.013124
C	 -1.217365	 -0.386708	 0.039277
H	 -0.000031	 1.072115	 0.718656
C	 -2.452633	 0.504241	 -0.042481
H	 -1.215291	 -1.074557	 -0.802042
H	 -1.269739	 -1.003477	 0.942735
C	 -3.758029	 -0.289423	 -0.010781
H	 -2.394220	 1.093569	 -0.952170
H	 -2.440793	 1.210787	 0.785871
H	 -3.816659	 -0.981993	 -0.845726
H	 -4.617837	 0.370165	 -0.069296
H	 -3.847478	 -0.867502	 0.904682

10 6 9 12 F
