%nprocshared=4
%mem=2GB
#HF/cc-pVTZ nosymm scf=tight opt=ModRedundant

Mol

0 1
H	 -3.498985	 1.253143	 -1.010443
O	 -3.458596	 0.315260	 -0.960865
C	 -3.176635	 -0.080824	 0.355601
C	 -1.763371	 0.265266	 0.799691
H	 -3.321825	 -1.153438	 0.379502
H	 -3.895468	 0.357385	 1.043382
C	 -1.517804	 0.062986	 2.292039
H	 -1.056483	 -0.332817	 0.226567
H	 -1.569928	 1.301390	 0.532455
C	 -2.297337	 1.040770	 3.167388
H	 -0.456987	 0.158116	 2.495829
H	 -1.789093	 -0.955405	 2.559972
C	 -3.769672	 1.147030	 2.774977
H	 -2.211416	 0.730631	 4.204365
H	 -1.839457	 2.025790	 3.104629
C	 -4.026991	 1.777671	 1.405332
H	 -4.303182	 1.713115	 3.535086
H	 -4.202891	 0.150587	 2.781467
C	 -3.646489	 3.252551	 1.300017
H	 -5.082525	 1.674205	 1.173132
H	 -3.493720	 1.213089	 0.644878
H	 -4.160480	 3.841661	 2.052904
H	 -3.917319	 3.650994	 0.328865
H	 -2.582077	 3.407402	 1.429065

7 4 3 2 F
