%nprocshared=4
%mem=2GB
#HF/cc-pVTZ nosymm scf=tight opt=ModRedundant

Mol

0 1
H	 2.526990	 -1.049037	 -1.113216
N	 1.549174	 -0.858076	 -1.131069
C	 1.272756	 0.450512	 -0.573366
C	 0.811777	 -1.897598	 -0.441517
H	 1.821233	 1.197568	 -1.134108
H	 1.574909	 0.527207	 0.472789
C	 -0.214989	 0.735521	 -0.670635
H	 1.026218	 -2.852037	 -0.906719
H	 1.084805	 -1.969259	 0.612968
C	 -0.675364	 -1.609513	 -0.538960
H	 -0.493463	 0.815104	 -1.725486
H	 -0.432129	 1.687662	 -0.201172
N	 -0.976577	 -0.298712	 -0.000000
H	 -1.225385	 -2.352978	 0.025713
H	 -0.985554	 -1.691482	 -1.584739
C	 -2.391156	 -0.021003	 -0.000000
H	 -2.853954	 -0.458728	 -0.875714
H	 -2.853954	 -0.458728	 0.875714
H	 -2.614037	 1.049773	 -0.000000

7 13 16 19 F
