%nprocshared=4
%mem=2GB
#HF/cc-pVTZ nosymm scf=tight opt=ModRedundant

Mol

0 1
H	 -1.943443	 0.993880	 -3.109059
C	 -2.476834	 0.328669	 -2.416329
C	 -1.744446	 -0.937381	 -2.063320
O	 -3.548262	 0.627596	 -2.016339
C	 -0.315674	 -0.679392	 -1.575747
H	 -2.325724	 -1.477823	 -1.327540
H	 -1.709743	 -1.538578	 -2.969224
C	 -0.247837	 0.040196	 -0.230469
H	 0.198410	 -1.631518	 -1.501492
H	 0.221977	 -0.103955	 -2.325412
C	 1.181757	 0.280428	 0.247371
H	 -0.783902	 -0.544835	 0.512148
H	 -0.768609	 0.992034	 -0.295486
C	 2.151032	 -0.811012	 -0.202643
H	 1.515939	 1.247397	 -0.115449
H	 1.191514	 0.341223	 1.333422
C	 3.580021	 -0.656538	 0.320835
H	 2.170545	 -0.847575	 -1.289412
H	 1.766632	 -1.772905	 0.124928
C	 4.327657	 0.562694	 -0.213579
H	 4.138806	 -1.549270	 0.057813
H	 3.561991	 -0.620783	 1.406976
H	 4.355973	 0.557257	 -1.298551
H	 3.867136	 1.491650	 0.100501
H	 5.351524	 0.571613	 0.142204

12 8 11 14 F
