%nprocshared=1
%mem=2GB
#HF/6-31G* nosymm scf=tight opt=ModRedundant

Mol

0 1
H	 -3.161837	 0.500524	 -0.000234
C	 -2.367097	 -0.232926	 -0.000000
O	 -1.158440	 0.455814	 -0.000122
H	 -2.468853	 -0.861886	 -0.882833
H	 -2.468942	 -0.861421	 0.883154
C	 -0.029776	 -0.365156	 0.000148
C	 -0.069386	 -1.252553	 1.232065
H	 0.876265	 0.242290	 0.000033
H	 -0.008330	 -0.974129	 -0.904617
C	 1.134416	 -2.189939	 1.316026
H	 -0.112646	 -0.618156	 2.112026
H	 -0.991001	 -1.826130	 1.213734
H	 2.067111	 -1.634451	 1.360039
H	 1.080164	 -2.811284	 2.203625
H	 1.182959	 -2.850640	 0.454909

8 6 3 2 F
