%nprocshared=1
%mem=2GB
#HF/6-31G* nosymm scf=tight opt=ModRedundant

Mol

0 1
H	 -0.679546	 -1.398891	 0.670623
N	 -0.626943	 -0.667432	 -0.000092
C	 -1.726037	 -0.507623	 -0.924846
C	 0.469286	 0.129090	 0.000148
H	 -1.860397	 -1.400360	 -1.526488
H	 -1.501315	 0.322074	 -1.575100
H	 -2.651250	 -0.300993	 -0.397288
C	 1.788933	 -0.616240	 -0.000037
O	 0.411098	 1.327768	 -0.000049
H	 1.872803	 -1.245775	 -0.880381
H	 2.595421	 0.101576	 0.003713
H	 1.870096	 -1.252171	 0.875943

3 2 4 9 F
