%nprocshared=1
%mem=2GB
#HF/6-31G* nosymm scf=tight 

Mol

0 1
H	 -2.798360	 -0.862255	 -0.071053
N	 -1.863561	 -0.715187	 0.256814
C	 -1.344686	 0.554728	 -0.219830
H	 -1.300452	 -1.461917	 -0.101532
C	 -1.446368	 1.597794	 0.873244
H	 -0.307479	 0.507328	 -0.554427
H	 -1.944746	 0.879723	 -1.064275
O	 -0.610005	 1.212416	 1.926367
H	 -1.143741	 2.573034	 0.492506
H	 -2.476244	 1.669087	 1.216040
C	 -0.670789	 2.043269	 3.041517
H	 0.012558	 1.649550	 3.781598
H	 -0.374112	 3.061422	 2.795898
H	 -1.672940	 2.068368	 3.464449

8 5 3 6 F
5 8 11 13 F
11 8 5 3 F
