%nprocshared=1
%mem=2GB
#HF/6-31G* nosymm scf=tight 

Mol

0 1
H	 -1.836216	 1.387520	 -0.000064
C	 -1.301823	 0.443321	 -0.000031
O	 -0.003969	 0.658512	 0.000451
O	 -1.829879	 -0.616434	 -0.000857
C	 0.714421	 0.338874	 -1.190739
C	 2.170404	 0.671191	 -0.945794
H	 0.303651	 0.912666	 -2.010098
H	 0.573290	 -0.710001	 -1.412637
H	 2.291704	 1.723846	 -0.717239
H	 2.754130	 0.442313	 -1.831294
H	 2.562803	 0.093398	 -0.116899

7 5 3 2 F
