%nprocshared=4
%mem=2GB
#HF/cc-pVTZ nosymm scf=tight opt=ModRedundant

Mol

0 1
H	 5.269878	 0.195679	 1.068175
C	 4.673900	 -0.208485	 0.258034
C	 3.190199	 -0.204714	 0.610086
H	 4.865136	 0.391893	 -0.624684
H	 5.027838	 -1.214511	 0.056939
C	 2.319208	 -0.778154	 -0.505491
H	 2.876954	 0.809861	 0.827925
H	 3.035335	 -0.782733	 1.518235
C	 1.743883	 -2.155739	 -0.192204
H	 1.505179	 -0.095813	 -0.716671
H	 2.911183	 -0.854569	 -1.412966
C	 0.643890	 -2.160549	 0.855878
H	 1.307242	 -2.585755	 -1.090089
H	 2.526803	 -2.844026	 0.112450
C	 0.301486	 -3.487956	 1.504045
O	 0.055059	 -1.169749	 1.147202
C	 -0.253894	 -4.527813	 0.524957
H	 -0.422436	 -3.283699	 2.281255
H	 1.198176	 -3.880533	 1.976302
C	 -0.677435	 -5.817115	 1.223515
H	 -1.107926	 -4.105457	 0.002616
H	 0.488265	 -4.761839	 -0.231635
C	 -1.239092	 -6.858106	 0.261224
H	 -1.421145	 -5.585818	 1.980133
H	 0.175370	 -6.235342	 1.751136
H	 -2.112561	 -6.479304	 -0.258625
H	 -0.504812	 -7.137202	 -0.487106
H	 -1.532715	 -7.758641	 0.787659

10 6 3 2 F
