%nprocshared=1
%mem=2GB
#HF/6-31G* nosymm scf=tight 

Mol

0 1
O	 -0.682937	 1.318834	 -0.186099
C	 -0.860635	 0.152188	 -0.042321
C	 -2.173363	 -0.477127	 0.338347
O	 0.083258	 -0.765189	 -0.202595
H	 -2.477673	 -1.180929	 -0.427595
H	 -2.923125	 0.290956	 0.455536
H	 -2.058825	 -1.029004	 1.264191
C	 -0.314808	 -2.114970	 -0.431572
C	 -0.622179	 -2.363560	 -1.896622
H	 -1.165201	 -2.344837	 0.192234
H	 0.530155	 -2.705346	 -0.107545
H	 -0.847707	 -3.414242	 -2.051333
H	 -1.477794	 -1.781664	 -2.215506
H	 0.230323	 -2.103478	 -2.514695

10 8 4 2 F
