%nprocshared=4
%mem=2GB
#HF/cc-pVTZ nosymm scf=tight opt=ModRedundant

Mol

0 1
H	 -3.537645	 0.227676	 0.592740
O	 -3.098730	 -0.280646	 -0.065529
C	 -1.770861	 -0.098045	 -0.018427
C	 -1.174672	 0.748208	 0.908315
C	 -0.996815	 -0.789002	 -0.935823
H	 -1.781862	 1.280856	 1.616858
C	 0.191680	 0.899054	 0.912883
H	 -1.476501	 -1.436537	 -1.641952
C	 0.370091	 -0.626903	 -0.917992
H	 0.663756	 1.548929	 1.622754
C	 0.981121	 0.213562	 0.000000
H	 0.971577	 -1.162466	 -1.629262
C	 2.447402	 0.371303	 0.000000
O	 3.227427	 -0.521847	 0.000000
H	 2.796538	 1.409525	 0.000000

7 11 13 14 F
