%nprocshared=1
%mem=2GB
#HF/6-31G* nosymm scf=tight opt=ModRedundant

Mol

0 1
H	 -3.420663	 1.227371	 -1.044276
O	 -3.452007	 0.283848	 -0.965577
C	 -3.181085	 -0.079926	 0.364119
C	 -1.765924	 0.277073	 0.805136
H	 -3.327791	 -1.152017	 0.410903
H	 -3.905698	 0.375695	 1.036898
C	 -0.677594	 -0.417312	 -0.014550
H	 -1.637766	 1.358238	 0.744969
H	 -1.659588	 0.017670	 1.857098
C	 0.695121	 0.243292	 0.128394
H	 -0.971496	 -0.429447	 -1.059626
H	 -0.610748	 -1.458815	 0.295604
C	 1.780501	 -0.460848	 -0.690278
H	 0.619306	 1.285192	 -0.173460
H	 0.986275	 0.249968	 1.178056
C	 3.191704	 0.110432	 -0.510554
H	 1.512673	 -0.428989	 -1.745241
H	 1.796762	 -1.513123	 -0.414107
C	 3.371267	 1.537378	 -1.032080
H	 3.894409	 -0.539572	 -1.026295
H	 3.462911	 0.074108	 0.542694
H	 3.095201	 1.606866	 -2.080935
H	 4.406155	 1.853255	 -0.942274
H	 2.765482	 2.250284	 -0.482578

11 7 4 3 F
