%nprocshared=4
%mem=2GB
#HF/cc-pVTZ nosymm scf=tight opt=ModRedundant

Mol

0 1
H	 -2.644180	 -0.653737	 1.272255
C	 -2.092774	 -0.380414	 0.391915
O	 -0.808934	 -0.154049	 0.752536
F	 -2.163230	 -1.351640	 -0.507133
F	 -2.627232	 0.691260	 -0.169301
C	 0.085006	 0.250800	 -0.215074
C	 -0.269491	 1.687062	 -0.592907
Cl	 -0.001222	 -0.794067	 -1.645583
H	 1.103537	 0.237590	 0.131433
F	 0.555943	 2.138491	 -1.502794
F	 -0.155774	 2.448541	 0.469418
F	 -1.489081	 1.793478	 -1.044047

9 6 3 2 F
