%nprocshared=1
%mem=2GB
#HF/6-31G* nosymm scf=tight 

Mol

0 1
H	 -2.698709	 -0.000305	 0.034435
C	 -1.693833	 0.000034	 0.434417
O	 -0.828952	 -0.000968	 -0.659236
H	 -1.574200	 0.882896	 1.055746
H	 -1.574147	 -0.881698	 1.057355
C	 -1.153944	 0.793106	 -1.776523
C	 -2.442877	 0.341580	 -2.460403
C	 -1.161086	 2.285594	 -1.451892
H	 -0.333262	 0.605932	 -2.458784
H	 -2.423551	 -0.729638	 -2.629721
H	 -2.546244	 0.836371	 -3.420993
H	 -3.324613	 0.580370	 -1.874157
H	 -0.254956	 2.559782	 -0.922547
H	 -1.208095	 2.864595	 -2.368960
H	 -2.013378	 2.569700	 -0.843022

9 6 3 2 F
