%nprocshared=4
%mem=2GB
#HF/cc-pVTZ nosymm scf=tight opt=ModRedundant

Mol

0 1
H	 6.830139	 -7.991321	 -3.594019
O	 6.919685	 -7.395448	 -2.873778
C	 7.556133	 -6.217560	 -3.294236
C	 6.822286	 -4.950746	 -2.880310
H	 8.536922	 -6.232888	 -2.838388
H	 7.701973	 -6.229241	 -4.372682
C	 6.387114	 -4.927769	 -1.416771
H	 7.462767	 -4.098060	 -3.084928
H	 5.947069	 -4.848352	 -3.517421
C	 5.294563	 -5.950677	 -1.108825
H	 6.033378	 -3.933951	 -1.163396
H	 7.249144	 -5.124589	 -0.781592
C	 4.871967	 -6.022665	 0.359672
H	 4.422952	 -5.737754	 -1.722979
H	 5.645676	 -6.932722	 -1.413417
C	 5.941372	 -6.549077	 1.315186
H	 4.582904	 -5.025629	 0.680434
H	 3.978706	 -6.637320	 0.445922
C	 6.254255	 -8.028381	 1.105011
H	 5.611857	 -6.395727	 2.340551
H	 6.857860	 -5.977995	 1.201527
C	 6.491203	 -8.389726	 -0.357582
H	 7.131053	 -8.295960	 1.688281
H	 5.435579	 -8.627058	 1.495420
H	 7.325303	 -7.830671	 -0.768644
H	 6.712958	 -9.444758	 -0.470887
H	 5.617613	 -8.169090	 -0.962158

4 3 2 1 F
