%nprocshared=1
%mem=2GB
#HF/6-31G* nosymm scf=tight 

Mol

0 1
O	 -1.756495	 -0.067919	 2.369589
C	 -0.783024	 0.602316	 2.203537
C	 0.486621	 0.001428	 1.626267
C	 -0.772064	 2.079954	 2.525778
C	 0.379448	 -0.143569	 0.099626
H	 0.620454	 -0.977231	 2.074171
H	 1.348578	 0.611168	 1.881754
C	 1.631333	 -0.777471	 -0.511575
H	 -0.497995	 -0.740319	 -0.122563
H	 0.216836	 0.834404	 -0.350788
C	 2.915987	 -0.544314	 0.291766
H	 1.766672	 -0.399098	 -1.523130
H	 1.471257	 -1.849544	 -0.605828
C	 3.373361	 0.914346	 0.347591
H	 3.708709	 -1.142521	 -0.150311
H	 2.780642	 -0.921148	 1.303579
H	 3.506512	 1.320010	 -0.651625
H	 4.322697	 0.999599	 0.867103
H	 2.660624	 1.545032	 0.868198
H	 -0.089492	 2.268975	 3.350176
H	 -1.765477	 2.406444	 2.800222
H	 -0.415631	 2.655969	 1.676680

6 3 2 1 F
6 3 5 8 F
12 8 11 15 F
