%nprocshared=4
%mem=2GB
#HF/cc-pVTZ nosymm scf=tight opt=ModRedundant

Mol

0 1
H	 -0.939693	 0.000281	 1.681345
O	 -0.046262	 -0.000157	 1.387678
C	 -0.000837	 0.000006	 -0.025491
C	 -0.233459	 1.417659	 -0.544428
C	 1.352002	 -0.532693	 -0.493683
C	 -1.126187	 -0.926241	 -0.465765
H	 -0.240112	 1.443372	 -1.627982
H	 0.550671	 2.086297	 -0.202180
H	 -1.181295	 1.798014	 -0.184708
H	 1.403358	 -0.578430	 -1.575376
H	 2.157964	 0.109127	 -0.150805
H	 1.521191	 -1.526380	 -0.098176
H	 -1.172286	 -0.991880	 -1.546439
H	 -2.077414	 -0.559684	 -0.101053
H	 -0.971415	 -1.920283	 -0.065589

4 3 2 1 F
