%nprocshared=4
%mem=2GB
#HF/cc-pVTZ nosymm scf=tight opt=ModRedundant

Mol

0 1
O	 1.846234	 1.296912	 -0.053897
C	 1.700007	 0.126752	 -0.155786
C	 0.376233	 -0.593837	 -0.151931
O	 2.707609	 -0.720128	 -0.289764
C	 -0.824290	 0.329213	 -0.000115
H	 0.319126	 -1.164717	 -1.072954
H	 0.412238	 -1.326623	 0.647550
C	 -2.146151	 -0.432825	 -0.000068
H	 -0.818996	 1.057325	 -0.803295
H	 -0.725639	 0.895429	 0.919101
C	 -3.366283	 0.483552	 0.000557
H	 -2.189286	 -1.084450	 -0.869996
H	 -2.188867	 -1.085083	 0.869399
C	 -4.687436	 -0.278003	 0.000108
H	 -3.325150	 1.134819	 -0.867957
H	 -3.325087	 1.133730	 0.869885
H	 -4.773783	 -0.912098	 -0.876078
H	 -5.531922	 0.401392	 0.000363
H	 -4.773901	 -0.912898	 0.875703
C	 4.012649	 -0.178091	 -0.309522
H	 4.128411	 0.507237	 -1.136044
H	 4.681143	 -1.015823	 -0.424265
H	 4.223004	 0.343202	 0.612551

9 5 8 12 F
