%nprocshared=4
%mem=2GB
#HF/6-31G* nosymm scf=tight opt=ModRedundant

Mol

0 1
H	 -3.161837	 0.500524	 -0.000234
C	 -2.367097	 -0.232926	 -0.000000
O	 -1.158440	 0.455814	 -0.000122
H	 -2.468853	 -0.861886	 -0.882833
H	 -2.468942	 -0.861421	 0.883154
C	 -0.029776	 -0.365156	 0.000148
C	 1.212217	 0.508981	 0.000007
H	 -0.036772	 -1.013236	 -0.877259
H	 -0.036869	 -1.012778	 0.877897
C	 2.133921	 0.214596	 -1.182651
H	 0.901165	 1.548992	 -0.016898
H	 1.741433	 0.355416	 0.935446
H	 1.630294	 0.385857	 -2.129992
H	 3.011566	 0.851741	 -1.157532
H	 2.476039	 -0.816534	 -1.171310

11 7 6 8 F
