%nprocshared=4
%mem=2GB
#HF/cc-pVTZ nosymm scf=tight opt=ModRedundant

Mol

0 1
O	 -0.694481	 1.313155	 -0.204815
C	 -0.862519	 0.151932	 -0.046791
C	 -2.171428	 -0.477048	 0.339095
O	 0.085519	 -0.757083	 -0.192238
H	 -2.467997	 -1.191667	 -0.417688
H	 -2.923379	 0.287970	 0.444097
H	 -2.053854	 -1.015120	 1.270901
C	 1.392036	 -0.330828	 -0.560749
C	 1.708253	 -0.676148	 -2.001116
H	 2.112144	 -0.770364	 0.111612
H	 1.382049	 0.738945	 -0.415020
H	 2.681719	 -0.278211	 -2.264671
H	 1.728612	 -1.747556	 -2.146213
H	 0.972028	 -0.244716	 -2.668524

10 8 4 2 F
