%nprocshared=1
%mem=2GB
#HF/6-31G* nosymm scf=tight opt=ModRedundant

Mol

0 1
H	 3.893188	 0.355400	 -0.101367
N	 3.092854	 -0.246221	 -0.068770
C	 1.865559	 0.531981	 0.018834
H	 3.199514	 -0.826043	 0.741946
C	 0.645745	 -0.382037	 -0.029944
H	 1.841966	 1.207024	 -0.831236
H	 1.815756	 1.155410	 0.915079
C	 -0.679275	 0.379305	 0.025956
H	 0.698998	 -0.976915	 -0.937203
H	 0.693479	 -1.083846	 0.802235
C	 -1.272025	 0.454755	 1.434263
H	 -1.397860	 -0.097883	 -0.638707
H	 -0.535851	 1.389045	 -0.355754
C	 -2.598010	 1.212862	 1.484737
H	 -1.417421	 -0.552941	 1.817175
H	 -0.557191	 0.933529	 2.100179
H	 -3.345091	 0.738392	 0.854606
H	 -2.992865	 1.248703	 2.495385
H	 -2.478208	 2.236214	 1.140078

12 8 5 9 F
