%nprocshared=1
%mem=2GB
#HF/6-31G* nosymm scf=tight 

Mol

0 1
H	 2.591676	 2.013956	 0.335017
O	 3.341076	 1.666752	 -0.126416
C	 3.569581	 0.339145	 0.272707
C	 2.539767	 -0.640285	 -0.279495
H	 4.553106	 0.084646	 -0.100901
H	 3.608576	 0.269204	 1.359154
C	 1.242094	 -0.701069	 0.529960
H	 2.316612	 -0.363394	 -1.306578
H	 2.994204	 -1.629213	 -0.309081
C	 0.251116	 -1.731876	 -0.017962
H	 0.778078	 0.281290	 0.535056
H	 1.473361	 -0.944169	 1.567147
C	 -1.031112	 -1.894048	 0.806619
H	 -0.010069	 -1.468599	 -1.041346
H	 0.750169	 -2.697149	 -0.071750
C	 -1.950163	 -0.669416	 0.816535
H	 -1.587041	 -2.741444	 0.410790
H	 -0.769193	 -2.156827	 1.830427
C	 -3.262944	 -0.915346	 1.563235
H	 -2.170727	 -0.377773	 -0.209334
H	 -1.440995	 0.176985	 1.271131
C	 -4.179435	 0.307529	 1.580144
H	 -3.786321	 -1.751815	 1.105104
H	 -3.044342	 -1.216285	 2.585748
H	 -4.443040	 0.613876	 0.571736
H	 -5.101642	 0.101081	 2.114513
H	 -3.698221	 1.151973	 2.065645

14 10 7 4 F
14 10 13 16 F
10 7 4 8 F
10 13 16 20 F
20 16 19 22 F
4 3 2 1 F
