%nprocshared=4
%mem=2GB
#HF/cc-pVTZ nosymm scf=tight opt=ModRedundant

Mol

0 1
O	 2.957039	 -0.983353	 -0.282855
C	 2.574127	 -2.072921	 -0.023620
C	 3.421274	 -3.319662	 -0.006182
O	 1.317782	 -2.342573	 0.292610
C	 4.881264	 -3.065873	 -0.360123
H	 3.312152	 -3.759658	 0.977712
H	 2.968364	 -4.023025	 -0.697908
C	 5.548065	 -1.991528	 0.500109
H	 4.953884	 -2.794888	 -1.407674
H	 5.428248	 -3.994614	 -0.254012
C	 5.310350	 -2.125939	 2.003382
H	 5.176736	 -1.023838	 0.176295
H	 6.618010	 -1.983859	 0.304048
C	 5.556291	 -3.540197	 2.522202
H	 5.961662	 -1.432487	 2.530438
H	 4.293071	 -1.835310	 2.248770
C	 4.530915	 -4.556129	 2.026965
H	 5.552509	 -3.529280	 3.609495
H	 6.551556	 -3.863440	 2.225844
C	 4.782236	 -5.966116	 2.550944
H	 3.535935	 -4.234596	 2.322516
H	 4.535410	 -4.570291	 0.940395
H	 4.037710	 -6.661585	 2.180827
H	 4.749000	 -5.992364	 3.635063
H	 5.756760	 -6.330242	 2.242847
C	 0.824678	 -3.623490	 -0.043565
H	 -0.139967	 -3.792406	 0.411591
H	 1.544729	 -4.329140	 0.337866
H	 0.731980	 -3.727573	 -1.114467

1 2 4 26 F
