%nprocshared=4
%mem=2GB
#HF/cc-pVTZ nosymm scf=tight opt=ModRedundant

Mol

0 1
H	 -1.646555	 2.514399	 -0.291816
C	 -0.625053	 2.157480	 -0.302426
C	 -0.600949	 0.658697	 -0.000002
H	 -0.060975	 2.709950	 0.436950
H	 -0.200316	 2.362073	 -1.275989
C	 0.763408	 0.112229	 -0.000006
H	 -1.036877	 0.455015	 0.969232
H	 -1.175434	 0.109096	 -0.734059
N	 1.806008	 -0.317179	 0.000007

7 3 6 9 F
