%nprocshared=4
%mem=2GB
#HF/cc-pVTZ nosymm scf=tight opt=ModRedundant

Mol

0 1
H	 -2.644180	 -0.653737	 1.272255
C	 -2.092774	 -0.380414	 0.391915
O	 -0.808934	 -0.154049	 0.752536
F	 -2.163230	 -1.351640	 -0.507133
F	 -2.627232	 0.691260	 -0.169301
C	 0.123661	 -1.142108	 0.521653
C	 -0.008749	 -1.563326	 -0.939962
Cl	 -0.143312	 -2.537074	 1.583885
H	 1.132450	 -0.804293	 0.682498
F	 0.864198	 -2.494609	 -1.229269
F	 0.236341	 -0.527363	 -1.706791
F	 -1.203109	 -2.006984	 -1.220895

6 3 2 4 F
