%nprocshared=4
%mem=2GB
#HF/cc-pVTZ nosymm scf=tight opt=ModRedundant

Mol

0 1
H	 2.614283	 2.028610	 0.296620
O	 3.358864	 1.662087	 -0.142800
C	 3.565468	 0.338079	 0.273842
C	 2.533667	 -0.637565	 -0.272227
H	 4.548038	 0.064914	 -0.086598
H	 3.593945	 0.282242	 1.360360
C	 1.741193	 -0.109439	 -1.465925
H	 3.040231	 -1.557717	 -0.547674
H	 1.847384	 -0.884191	 0.534365
C	 0.693048	 -1.102655	 -1.965676
H	 2.425520	 0.130290	 -2.272913
H	 1.247497	 0.820130	 -1.187619
C	 -0.181271	 -0.596321	 -3.114347
H	 1.188474	 -2.021458	 -2.269950
H	 0.046576	 -1.369527	 -1.134218
C	 0.552094	 -0.374828	 -4.436035
H	 -0.978815	 -1.315735	 -3.278343
H	 -0.667749	 0.328917	 -2.813633
C	 -0.379046	 0.033886	 -5.574605
H	 1.075106	 -1.287810	 -4.712425
H	 1.314966	 0.388582	 -4.316730
C	 0.350428	 0.259489	 -6.894781
H	 -1.138318	 -0.731569	 -5.709371
H	 -0.908637	 0.941243	 -5.296579
H	 0.864251	 -0.640278	 -7.216717
H	 -0.338995	 0.545282	 -7.680990
H	 1.091673	 1.046598	 -6.803304

8 4 3 2 F
