%nprocshared=4
%mem=2GB
#HF/cc-pVTZ nosymm scf=tight opt=ModRedundant

Mol

0 1
H	 -2.698799	 -0.000846	 0.036018
C	 -1.694291	 -0.000483	 0.434279
O	 -0.828718	 -0.000608	 -0.655022
H	 -1.576855	 0.881100	 1.056504
H	 -1.576401	 -0.881658	 1.057001
C	 0.557892	 0.000078	 -0.420099
C	 0.920438	 0.575732	 0.944252
C	 1.193186	 -1.364898	 -0.659873
H	 0.936479	 0.677541	 -1.175304
H	 0.423180	 1.525748	 1.096771
H	 1.990439	 0.738623	 1.001795
H	 0.647588	 -0.089246	 1.755387
H	 0.885150	 -1.760670	 -1.619833
H	 2.273118	 -1.272596	 -0.660537
H	 0.927485	 -2.081380	 0.108630

9 6 3 2 F
