%nprocshared=4
%mem=2GB
#HF/cc-pVTZ nosymm scf=tight opt=ModRedundant

Mol

0 1
H	 1.406810	 1.291171	 -3.074091
O	 1.978124	 1.325648	 -2.327677
C	 1.348791	 0.929911	 -1.207001
C	 2.079506	 0.932611	 -0.027523
C	 0.029104	 0.531497	 -1.199974
H	 3.104253	 1.246102	 -0.055351
C	 1.487975	 0.537709	 1.150397
H	 -0.557981	 0.519580	 -2.094673
C	 -0.532034	 0.141680	 0.000000
H	 2.060461	 0.543036	 2.057028
C	 0.163839	 0.133287	 1.182782
N	 -1.937041	 -0.281114	 0.000000
H	 -0.308488	 -0.175801	 2.089476
O	 -2.159542	 -1.446261	 0.000000
O	 -2.764978	 0.565773	 0.000000

11 9 12 14 F
