%nprocshared=4
%mem=2GB
#HF/cc-pVTZ nosymm scf=tight opt=ModRedundant

Mol

0 1
O	 -2.071633	 -1.227563	 -0.223463
C	 -1.652164	 -0.152425	 0.058082
C	 -0.327811	 0.006324	 0.778296
C	 -2.402515	 1.108629	 -0.298924
C	 0.833101	 0.111682	 -0.218002
H	 -0.348543	 0.885938	 1.413098
H	 -0.190135	 -0.864414	 1.406546
C	 1.081024	 -1.190601	 -0.973529
H	 1.741557	 0.399885	 0.304818
H	 0.614980	 0.907117	 -0.922325
C	 2.226577	 -1.086875	 -1.974584
H	 1.292879	 -1.984814	 -0.262988
H	 0.172172	 -1.479572	 -1.493167
H	 3.158006	 -0.833048	 -1.479563
H	 2.028480	 -0.321629	 -2.717232
H	 2.375050	 -2.024618	 -2.497073
H	 -3.240910	 0.874416	 -0.936711
H	 -1.747554	 1.818823	 -0.790984
H	 -2.760419	 1.579708	 0.610998

5 3 2 4 F
