%nprocshared=4
%mem=2GB
#HF/cc-pVTZ nosymm scf=tight opt=ModRedundant

Mol

0 1
O	 0.395927	 1.296676	 -0.000076
C	 0.503051	 0.114301	 -0.000074
C	 -0.701422	 -0.805636	 -0.000109
C	 1.858118	 -0.556123	 0.000212
C	 -1.389830	 -0.925607	 -1.350584
H	 -0.370728	 -1.778482	 0.354359
H	 -1.391960	 -0.441449	 0.756175
H	 -0.710615	 -1.310616	 -2.099359
H	 -2.239020	 -1.594928	 -1.281721
H	 -1.740911	 0.038262	 -1.693993
H	 1.961106	 -1.191101	 -0.872843
H	 2.636688	 0.191085	 -0.000109
H	 1.961070	 -1.190284	 0.873873

6 3 2 1 F
