%nprocshared=1
%mem=2GB
#HF/6-31G* nosymm scf=tight 

Mol

0 1
H	 -0.095406	 3.651662	 -1.945918
O	 -0.564583	 2.847723	 -2.118960
C	 -0.355104	 1.943368	 -1.067651
C	 1.037921	 1.342035	 -1.127205
H	 -0.510329	 2.410910	 -0.099319
H	 -1.091441	 1.159494	 -1.176274
O	 1.171513	 0.459272	 -0.058250
H	 1.789612	 2.131667	 -1.068722
H	 1.175054	 0.831461	 -2.078569
C	 2.397842	 -0.198080	 -0.002151
H	 2.508049	 -0.905315	 -0.822092
H	 3.173794	 0.550865	 -0.078850
H	 2.517602	 -0.735921	 0.936026

8 4 3 5 F
1 2 3 5 F
10 7 4 8 F
