%nprocshared=4
%mem=2GB
#HF/cc-pVTZ nosymm scf=tight opt=ModRedundant

Mol

0 1
O	 0.012111	 -0.249308	 -0.171894
C	 1.121787	 0.124983	 0.000110
C	 1.535786	 1.553314	 0.244934
O	 2.167739	 -0.685178	 -0.000678
C	 0.373352	 2.535418	 0.256851
H	 2.077150	 1.573628	 1.185143
H	 2.261410	 1.812402	 -0.519138
C	 0.827404	 3.970440	 0.507563
H	 -0.339385	 2.237519	 1.017642
H	 -0.154567	 2.477055	 -0.688368
C	 -0.330050	 4.962875	 0.523792
H	 1.358568	 4.021926	 1.454376
H	 1.541464	 4.263201	 -0.257712
H	 -1.044524	 4.716918	 1.302006
H	 0.021416	 5.972228	 0.703667
H	 -0.860225	 4.960057	 -0.422510
C	 3.449556	 -0.089977	 -0.000570
H	 3.585694	 0.522473	 -0.879546
H	 4.155805	 -0.904274	 -0.001389
H	 3.586173	 0.521118	 0.879272

1 2 4 17 F
