%nprocshared=1
%mem=2GB
#HF/6-31G* nosymm scf=tight opt=ModRedundant

Mol

0 1
H	 -3.420663	 1.227371	 -1.044276
O	 -3.452007	 0.283848	 -0.965577
C	 -3.181085	 -0.079926	 0.364119
C	 -1.765924	 0.277073	 0.805136
H	 -3.327791	 -1.152017	 0.410903
H	 -3.905698	 0.375695	 1.036898
C	 -0.677594	 -0.417312	 -0.014550
H	 -1.637766	 1.358238	 0.744969
H	 -1.659588	 0.017670	 1.857098
C	 0.738335	 -0.034840	 0.421385
H	 -0.814977	 -0.178223	 -1.064632
H	 -0.802730	 -1.495410	 0.071702
C	 1.811729	 -0.940680	 -0.188010
H	 0.925630	 1.000296	 0.146008
H	 0.807190	 -0.079022	 1.507622
C	 3.240124	 -0.653098	 0.288584
H	 1.773716	 -0.863251	 -1.273484
H	 1.570435	 -1.974579	 0.049996
C	 3.790698	 0.709002	 -0.137979
H	 3.895082	 -1.429918	 -0.098548
H	 3.280877	 -0.735573	 1.372899
H	 3.750729	 0.824977	 -1.217836
H	 4.826981	 0.818563	 0.166902
H	 3.234037	 1.528908	 0.303662

13 10 7 11 F
