%nprocshared=4
%mem=2GB
#HF/6-31G* nosymm scf=tight opt=ModRedundant

Mol

0 1
O	 -2.042549	 -1.228399	 -0.269030
C	 -1.653912	 -0.146171	 0.050137
C	 -0.332303	 0.024011	 0.778412
C	 -2.438579	 1.106236	 -0.272369
C	 0.845713	 -0.001731	 -0.208243
H	 -0.323783	 0.953829	 1.340327
H	 -0.235459	 -0.796807	 1.480410
C	 0.561996	 0.791157	 -1.484905
H	 1.083223	 -1.031115	 -0.470996
H	 1.722387	 0.402715	 0.288756
C	 1.735155	 0.774716	 -2.464004
H	 -0.322344	 0.386867	 -1.972674
H	 0.324276	 1.819249	 -1.222068
H	 1.975262	 -0.238858	 -2.772337
H	 2.626160	 1.203298	 -2.014706
H	 1.507009	 1.346774	 -3.357719
H	 -3.277823	 0.863061	 -0.908988
H	 -1.806773	 1.843019	 -0.759671
H	 -2.802853	 1.554979	 0.648059

9 5 3 2 F
