%nprocshared=4
%mem=2GB
#HF/6-31G* nosymm scf=tight opt=ModRedundant

Mol

0 1
H	 3.367740	 -3.143492	 -2.075582
C	 3.163872	 -2.120525	 -2.376413
C	 1.834252	 -1.630998	 -1.804006
H	 3.987620	 -1.503483	 -2.029946
H	 3.160598	 -2.089493	 -3.462611
C	 1.512475	 -0.192508	 -2.215127
H	 1.863107	 -1.699978	 -0.721411
H	 1.034208	 -2.288703	 -2.140228
C	 0.178263	 0.319243	 -1.671753
H	 2.305307	 0.467283	 -1.880854
H	 1.485602	 -0.130854	 -3.300722
C	 0.169600	 0.576866	 -0.172154
H	 -0.075056	 1.264196	 -2.149942
H	 -0.630901	 -0.363095	 -1.922445
C	 -1.181045	 0.701995	 0.511084
O	 1.183248	 0.695829	 0.448145
C	 -2.285934	 -0.139295	 -0.145128
H	 -1.449051	 1.751551	 0.493206
H	 -1.071135	 0.403303	 1.551943
C	 -3.651768	 0.085446	 0.506485
H	 -2.346596	 0.110469	 -1.202272
H	 -2.034737	 -1.195320	 -0.088721
C	 -4.759797	 -0.746382	 -0.137905
H	 -3.908762	 1.140117	 0.445781
H	 -3.588286	 -0.154158	 1.565709
H	 -4.868882	 -0.505166	 -1.191300
H	 -4.548009	 -1.809175	 -0.062213
H	 -5.715422	 -0.564821	 0.343442

16 12 15 17 F
