%nprocshared=1
%mem=2GB
#HF/6-31G* nosymm scf=tight 

Mol

0 1
O	 3.225979	 0.970355	 -0.599647
C	 2.701189	 0.057885	 -0.047330
C	 1.245376	 -0.013843	 0.345420
O	 3.347903	 -1.046386	 0.304773
C	 0.455112	 1.231400	 -0.050772
H	 0.838542	 -0.913825	 -0.103701
H	 1.208210	 -0.175333	 1.419774
C	 -0.998893	 1.219485	 0.433193
H	 0.482531	 1.345121	 -1.130325
H	 0.957290	 2.103070	 0.354729
C	 -1.883438	 0.145884	 -0.207175
H	 -1.431207	 2.195402	 0.224832
H	 -1.019646	 1.105716	 1.516076
C	 -3.362291	 0.300572	 0.153470
H	 -1.770988	 0.188594	 -1.289464
H	 -1.549921	 -0.844044	 0.095780
C	 -4.255039	 -0.769969	 -0.476668
H	 -3.707696	 1.284669	 -0.158753
H	 -3.474156	 0.268704	 1.236138
C	 -5.730781	 -0.606095	 -0.114686
H	 -4.143711	 -0.740182	 -1.558500
H	 -3.914034	 -1.754169	 -0.162268
H	 -6.337561	 -1.379196	 -0.575924
H	 -6.111550	 0.355471	 -0.447253
H	 -5.879910	 -0.665726	 0.959781
C	 4.728119	 -1.109107	 -0.004993
H	 4.882018	 -1.033965	 -1.071845
H	 5.068212	 -2.067527	 0.355250
H	 5.265056	 -0.311663	 0.488280

21 17 14 11 F
17 14 11 15 F
6 3 5 9 F
11 8 5 9 F
2 4 26 27 F
1 2 4 26 F
6 3 2 1 F
