%nprocshared=4
%mem=2GB
#HF/6-31G* nosymm scf=tight opt=ModRedundant

Mol

0 1
O	 1.073434	 4.162437	 1.082808
C	 0.085481	 4.489398	 1.665736
C	 -1.180777	 3.652060	 1.645919
C	 0.031809	 5.772361	 2.469652
C	 -1.068086	 2.373823	 0.820300
H	 -1.444312	 3.422098	 2.677449
H	 -1.989759	 4.279975	 1.274875
C	 -2.361601	 1.557389	 0.824219
H	 -0.250709	 1.772448	 1.205491
H	 -0.797001	 2.631234	 -0.198720
C	 -2.259874	 0.272531	 0.000494
H	 -2.629466	 1.305644	 1.849363
H	 -3.177427	 2.166942	 0.438291
C	 -3.549786	 -0.549746	 -0.000374
H	 -1.445093	 -0.337919	 0.385854
H	 -1.992995	 0.523034	 -1.024699
C	 -4.809590	 0.315458	 -0.000369
H	 -3.560515	 -1.202009	 -0.871156
H	 -3.561123	 -1.202955	 0.869711
H	 -4.844746	 0.956611	 -0.876632
H	 -5.706986	 -0.295590	 -0.001609
H	 -4.845960	 0.954827	 0.877144
H	 -0.202819	 5.559164	 3.508457
H	 0.984893	 6.279406	 2.411585
H	 -0.749418	 6.424560	 2.090238

15 11 14 18 F
