%nprocshared=1
%mem=2GB
#HF/6-31G* nosymm scf=tight 

Mol

0 1
H	 -3.135461	 -1.215070	 0.001379
O	 -2.310168	 -0.871793	 -0.309793
C	 -2.026376	 0.340750	 0.341611
C	 -0.673256	 0.843270	 -0.132153
H	 -2.792215	 1.080697	 0.115987
H	 -2.013526	 0.200402	 1.421792
C	 0.486613	 -0.083066	 0.235839
H	 -0.715586	 0.970948	 -1.210718
H	 -0.508072	 1.829858	 0.297090
C	 0.337625	 -0.700680	 1.627302
H	 1.416875	 0.472942	 0.181241
H	 0.557783	 -0.879541	 -0.504028
C	 1.493786	 -1.630972	 1.992708
H	 0.267248	 0.093736	 2.367347
H	 -0.599262	 -1.251781	 1.681830
H	 2.441409	 -1.100159	 1.980956
H	 1.362531	 -2.052243	 2.984801
H	 1.569892	 -2.456441	 1.290340

14 10 7 11 F
2 3 4 8 F
1 2 3 4 F
