%nprocshared=1
%mem=2GB
#HF/6-31G* nosymm scf=tight 

Mol

0 1
O	 2.600899	 1.006540	 0.661933
C	 2.701189	 0.057885	 -0.047330
C	 2.129138	 -0.065202	 -1.438875
O	 3.347903	 -1.046386	 0.304773
C	 1.384837	 1.188007	 -1.894505
H	 2.952518	 -0.312545	 -2.100734
H	 1.473930	 -0.932601	 -1.443233
C	 0.708983	 1.041444	 -3.262071
H	 2.073454	 2.027410	 -1.912596
H	 0.633651	 1.433249	 -1.151539
C	 1.670292	 0.876606	 -4.442674
H	 0.098129	 1.924966	 -3.432273
H	 0.019635	 0.198711	 -3.237352
C	 0.953193	 0.845067	 -5.793886
H	 2.388651	 1.694979	 -4.435963
H	 2.248108	 -0.038006	 -4.330486
C	 1.903497	 0.675442	 -6.980597
H	 0.382688	 1.763693	 -5.919917
H	 0.227100	 0.033601	 -5.797356
C	 1.179822	 0.648771	 -8.326436
H	 2.630365	 1.484947	 -6.978064
H	 2.471530	 -0.244471	 -6.858608
H	 1.879648	 0.527463	 -9.147493
H	 0.629903	 1.570537	 -8.494161
H	 0.469441	 -0.171853	 -8.373447
C	 4.728119	 -1.109107	 -0.004993
H	 4.882018	 -1.033965	 -1.071845
H	 5.068212	 -2.067527	 0.355250
H	 5.265056	 -0.311663	 0.488280

21 17 14 11 F
17 14 11 15 F
15 11 8 5 F
6 3 5 9 F
11 8 5 9 F
2 4 26 27 F
6 3 2 1 F
