%nprocshared=4
%mem=2GB
#HF/cc-pVTZ nosymm scf=tight opt=ModRedundant

Mol

0 1
O	 -0.427360	 -1.392182	 -0.665010
C	 0.595354	 -1.297218	 -0.076775
C	 1.246364	 -0.005813	 0.348416
O	 1.317782	 -2.342573	 0.292610
C	 0.453207	 1.232821	 -0.049003
H	 1.394842	 -0.066917	 1.419758
H	 2.239873	 0.009843	 -0.088647
C	 -0.998367	 1.217982	 0.432195
H	 0.481498	 1.345443	 -1.127236
H	 0.951413	 2.105557	 0.354893
C	 -1.646826	 -0.164194	 0.491330
H	 -1.580300	 1.844800	 -0.236847
H	 -1.059326	 1.686501	 1.412018
C	 -0.776552	 -1.201877	 1.195336
H	 -2.601535	 -0.088017	 1.006692
H	 -1.868955	 -0.516477	 -0.511711
C	 0.486051	 -1.563992	 0.418495
H	 -1.360786	 -2.102534	 1.368044
H	 -0.496934	 -0.828959	 2.177992
C	 1.349229	 -2.602411	 1.127288
H	 0.208246	 -1.936975	 -0.563558
H	 1.072507	 -0.665285	 0.247466
H	 2.236327	 -2.836434	 0.549990
H	 0.802080	 -3.526479	 1.281678
H	 1.672282	 -2.245094	 2.099486
C	 0.824678	 -3.623490	 -0.043565
H	 -0.139967	 -3.792406	 0.411591
H	 1.544729	 -4.329140	 0.337866
H	 0.731980	 -3.727573	 -1.114467

11 8 5 9 F
