%nprocshared=4
%mem=2GB
#HF/cc-pVTZ nosymm scf=tight opt=ModRedundant

Mol

0 1
H	 -3.971167	 -0.927035	 -0.815086
C	 -2.907157	 -0.789241	 -0.847825
C	 -2.330551	 -0.119216	 -1.911890
C	 -2.117125	 -1.281893	 0.173511
H	 -2.944393	 0.262901	 -2.704282
C	 -0.963229	 0.057458	 -1.953257
H	 -2.565258	 -1.801358	 0.998256
C	 -0.747861	 -1.105787	 0.133524
H	 -0.500311	 0.573732	 -2.769484
C	 -0.166874	 -0.435046	 -0.930935
H	 -0.133171	 -1.486076	 0.922869
C	 1.305382	 -0.218174	 -1.022304
O	 1.968286	 -0.725612	 -0.000027
O	 1.833790	 0.350655	 -1.918070
C	 3.373556	 -0.568203	 0.000011
H	 3.695416	 -0.031588	 -0.879663
H	 3.782700	 -1.565294	 -0.000152
H	 3.695405	 -0.031851	 0.879862

12 13 15 16 F
