%nprocshared=4
%mem=2GB
#HF/6-31G* nosymm scf=tight opt=ModRedundant

Mol

0 1
H	 -3.006072	 -2.992348	 0.273062
O	 -2.780768	 -2.138066	 -0.066563
C	 -1.505730	 -1.768689	 0.392163
C	 -1.177863	 -0.397191	 -0.171080
H	 -1.483752	 -1.739786	 1.480735
H	 -0.758163	 -2.492394	 0.070084
C	 0.198102	 0.111031	 0.262842
H	 -1.950906	 0.296881	 0.147351
H	 -1.233421	 -0.450468	 -1.254847
C	 1.331804	 -0.827780	 -0.158768
H	 0.361943	 1.100838	 -0.156218
H	 0.217265	 0.229072	 1.345532
C	 2.723619	 -0.410569	 0.329459
H	 1.342964	 -0.912588	 -1.244120
H	 1.116806	 -1.824343	 0.220779
C	 3.243875	 0.895854	 -0.272975
H	 3.424222	 -1.207124	 0.091250
H	 2.714788	 -0.329854	 1.414619
H	 3.251977	 0.848779	 -1.358681
H	 2.637085	 1.747371	 0.016682
H	 4.259473	 1.094070	 0.055697

8 4 7 10 F
