%nprocshared=1
%mem=2GB
#HF/6-31G* nosymm scf=tight 

Mol

0 1
O	 -2.439739	 -0.935931	 -0.423848
C	 -1.921153	 0.064240	 -0.045697
C	 -2.624470	 1.379923	 0.150949
O	 -0.632575	 0.154573	 0.251549
H	 -2.168117	 2.136577	 -0.476876
H	 -3.669540	 1.273223	 -0.098610
H	 -2.519365	 1.700893	 1.180846
C	 0.160891	 -1.019931	 0.106212
C	 1.589627	 -0.672828	 0.480843
H	 0.089836	 -1.367806	 -0.916050
H	 -0.238459	 -1.792301	 0.749618
C	 2.604159	 -1.766101	 0.140433
H	 1.608542	 -0.477616	 1.551108
H	 1.866016	 0.255816	 -0.011586
C	 4.027242	 -1.394863	 0.555181
H	 2.313276	 -2.691183	 0.634105
H	 2.575782	 -1.962514	 -0.926326
H	 4.727257	 -2.184902	 0.302496
H	 4.093708	 -1.224157	 1.626031
H	 4.357298	 -0.488621	 0.055313

16 12 9 8 F
2 4 8 10 F
1 2 4 8 F
