%nprocshared=1
%mem=2GB
#HF/6-31G* nosymm scf=tight opt=ModRedundant

Mol

0 1
H	 3.276176	 0.174363	 -0.109463
N	 2.434251	 -0.367735	 -0.081097
C	 1.267428	 0.496480	 0.024474
H	 2.501951	 -0.965776	 0.720575
C	 -0.016086	 -0.325158	 -0.029487
H	 1.288818	 1.183521	 -0.816092
H	 1.267576	 1.109062	 0.929528
C	 -1.282277	 0.529072	 0.046735
H	 -0.012495	 -0.908639	 -0.945788
H	 -0.015903	 -1.041248	 0.791956
C	 -1.695696	 1.101392	 -1.308712
H	 -1.124340	 1.345657	 0.748328
H	 -2.099187	 -0.065831	 0.450101
H	 -0.913052	 1.730320	 -1.723003
H	 -2.594752	 1.703922	 -1.223990
H	 -1.894835	 0.308699	 -2.024396

12 8 5 9 F
