%nprocshared=4
%mem=2GB
#HF/cc-pVTZ nosymm scf=tight opt=ModRedundant

Mol

0 1
H	 -1.158361	 2.627386	 3.678787
O	 -0.471247	 2.054505	 3.392643
C	 -0.739376	 1.588520	 2.096733
C	 0.388410	 0.670122	 1.671570
H	 -1.684460	 1.049945	 2.073797
H	 -0.820435	 2.421746	 1.401755
C	 0.196029	 0.106276	 0.266738
H	 0.462107	 -0.139412	 2.390905
H	 1.321066	 1.222330	 1.727561
C	 1.330220	 -0.826136	 -0.155230
H	 -0.751988	 -0.420906	 0.221383
H	 0.125636	 0.925169	 -0.446032
C	 2.719700	 -0.407669	 0.328325
H	 1.339388	 -0.911200	 -1.239363
H	 1.119001	 -1.821953	 0.224128
C	 3.241564	 0.893452	 -0.276737
H	 3.418299	 -1.204729	 0.093035
H	 2.711776	 -0.323368	 1.411960
H	 3.254204	 0.841071	 -1.360784
H	 2.634460	 1.745075	 0.005842
H	 4.254264	 1.092401	 0.054971

4 7 10 14 F
