%nprocshared=1
%mem=2GB
#HF/6-31G* nosymm scf=tight opt=ModRedundant

Mol

0 1
H	 -3.420663	 1.227371	 -1.044276
O	 -3.452007	 0.283848	 -0.965577
C	 -3.181085	 -0.079926	 0.364119
C	 -1.765924	 0.277073	 0.805136
H	 -3.327791	 -1.152017	 0.410903
H	 -3.905698	 0.375695	 1.036898
C	 -0.677594	 -0.417312	 -0.014550
H	 -1.637766	 1.358238	 0.744969
H	 -1.659588	 0.017670	 1.857098
C	 0.738335	 -0.034840	 0.421385
H	 -0.814977	 -0.178223	 -1.064632
H	 -0.802730	 -1.495410	 0.071702
C	 1.641112	 0.339609	 -0.757116
H	 0.680578	 0.793827	 1.123094
H	 1.186375	 -0.865200	 0.965780
C	 3.095211	 0.645053	 -0.379681
H	 1.217606	 1.198225	 -1.275881
H	 1.635571	 -0.479350	 -1.473421
C	 3.279123	 1.894845	 0.483220
H	 3.670111	 0.766193	 -1.294616
H	 3.521518	 -0.214363	 0.134002
H	 2.850706	 2.768927	 -0.000079
H	 4.332801	 2.095115	 0.652016
H	 2.808798	 1.790473	 1.455365

13 10 7 11 F
