%nprocshared=4
%mem=2GB
#HF/cc-pVTZ nosymm scf=tight opt=ModRedundant

Mol

0 1
O	 0.725018	 0.697996	 -1.982349
C	 0.781622	 1.719742	 -1.387478
C	 1.029323	 1.858552	 0.092731
O	 0.630629	 2.901797	 -1.962250
C	 2.182495	 1.007182	 0.604283
H	 1.199516	 2.911519	 0.292092
H	 0.102048	 1.608814	 0.597936
C	 3.470185	 1.242566	 -0.179596
H	 1.905002	 -0.039445	 0.550959
H	 2.346273	 1.221263	 1.654348
C	 3.448304	 0.615435	 -1.570530
H	 3.648035	 2.311667	 -0.272563
H	 4.313382	 0.842690	 0.379292
C	 4.735058	 0.851074	 -2.354206
H	 2.607071	 1.014829	 -2.129967
H	 3.272359	 -0.452642	 -1.478802
H	 4.920887	 1.911045	 -2.492634
H	 4.686101	 0.393648	 -3.335582
H	 5.591387	 0.431626	 -1.836519
C	 1.774850	 3.725117	 -2.063383
H	 2.168391	 3.953019	 -1.083894
H	 1.449161	 4.628457	 -2.553025
H	 2.542901	 3.240436	 -2.647673

1 2 4 20 F
