%nprocshared=4
%mem=2GB
#HF/cc-pVTZ nosymm scf=tight opt=ModRedundant

Mol

0 1
H	 -3.498985	 1.253143	 -1.010443
O	 -3.458596	 0.315260	 -0.960865
C	 -3.176635	 -0.080824	 0.355601
C	 -1.763371	 0.265266	 0.799691
H	 -3.321825	 -1.153438	 0.379502
H	 -3.895468	 0.357385	 1.043382
C	 -1.588038	 1.720500	 1.223807
H	 -1.479340	 -0.393134	 1.619264
H	 -1.086658	 0.037297	 -0.020356
C	 -1.730470	 2.705241	 0.066238
H	 -0.615743	 1.842803	 1.688133
H	 -2.322979	 1.956353	 1.989797
C	 -2.964805	 2.438764	 -0.793096
H	 -1.767092	 3.714478	 0.464972
H	 -0.842325	 2.656858	 -0.560432
C	 -2.929342	 1.128786	 -1.582112
H	 -3.107140	 3.267664	 -1.482672
H	 -3.839874	 2.428559	 -0.149069
C	 -1.863308	 1.069629	 -2.673541
H	 -3.902515	 0.977346	 -2.039034
H	 -2.786472	 0.299639	 -0.893981
H	 -1.977526	 1.890960	 -3.373860
H	 -1.938952	 0.145384	 -3.235048
H	 -0.861121	 1.120335	 -2.265307

7 4 3 2 F
