%nprocshared=4
%mem=2GB
#HF/cc-pVTZ nosymm scf=tight opt=ModRedundant

Mol

0 1
O	 -0.694481	 1.313155	 -0.204815
C	 -0.862519	 0.151932	 -0.046791
C	 -2.171428	 -0.477048	 0.339095
O	 0.085519	 -0.757083	 -0.192238
H	 -2.467997	 -1.191667	 -0.417688
H	 -2.923379	 0.287970	 0.444097
H	 -2.053854	 -1.015120	 1.270901
C	 1.392036	 -0.330828	 -0.560749
C	 1.419713	 0.241402	 -1.962777
H	 2.076325	 -1.159356	 -0.465325
H	 1.649313	 0.423488	 0.167651
H	 2.413234	 0.615527	 -2.182775
H	 1.172137	 -0.515645	 -2.694193
H	 0.718706	 1.062184	 -2.054965

10 8 4 2 F
