%nprocshared=1
%mem=2GB
#HF/6-31G* nosymm scf=tight 

Mol

0 1
O	 -2.821601	 1.309235	 -0.001213
C	 -2.668563	 0.129746	 -0.000350
C	 -3.801572	 -0.864014	 -0.000442
O	 -1.481751	 -0.454642	 0.000584
H	 -4.417280	 -0.689587	 -0.874708
H	 -3.443784	 -1.883046	 -0.000565
H	 -4.417179	 -0.689832	 0.873954
C	 -0.334255	 0.388708	 0.000906
C	 0.891947	 -0.504646	 0.000751
H	 -0.365390	 1.025305	 -0.873475
H	 -0.365484	 1.024911	 0.875569
C	 2.191998	 0.301789	 0.000897
H	 0.855148	 -1.151283	 -0.871571
H	 0.855132	 -1.151660	 0.872805
C	 2.913018	 0.269690	 1.349758
H	 2.858085	 -0.081724	 -0.770032
H	 1.978990	 1.335350	 -0.266423
C	 4.212186	 1.074070	 1.349456
H	 3.126958	 -0.762402	 1.618256
H	 2.249640	 0.654756	 2.120942
H	 4.910484	 0.691101	 0.610721
H	 4.699888	 1.032111	 2.318281
H	 4.026545	 2.118942	 1.117529

13 9 8 10 F
2 4 8 10 F
19 15 12 16 F
1 2 4 8 F
