%nprocshared=4
%mem=2GB
#HF/cc-pVTZ nosymm scf=tight opt=ModRedundant

Mol

0 1
H	 -3.412771	 -0.933096	 -0.386883
O	 -3.112535	 -0.152320	 0.042771
C	 -1.774743	 -0.061958	 0.012028
C	 -0.983314	 -1.030559	 -0.592860
C	 -1.193968	 1.043636	 0.610815
H	 -1.441233	 -1.885462	 -1.055329
C	 0.384000	 -0.888658	 -0.595842
H	 -1.822417	 1.778924	 1.071708
C	 0.176694	 1.170815	 0.599177
H	 1.005627	 -1.628935	 -1.059177
C	 0.981121	 0.213562	 0.000000
H	 0.628335	 2.028144	 1.063425
C	 2.447402	 0.371303	 0.000000
O	 3.227427	 -0.521847	 0.000000
H	 2.796538	 1.409525	 0.000000

7 11 13 14 F
