%nprocshared=4
%mem=2GB
#HF/cc-pVTZ nosymm scf=tight opt=ModRedundant

Mol

0 1
O	 -2.440701	 -0.934798	 -0.415053
C	 -1.922978	 0.063265	 -0.045005
C	 -2.632749	 1.372204	 0.158357
O	 -0.637375	 0.157174	 0.243149
H	 -2.187724	 2.129143	 -0.474664
H	 -3.677681	 1.257276	 -0.079438
H	 -2.516788	 1.693160	 1.185542
C	 0.162530	 -1.009518	 0.097799
C	 1.587210	 -0.664190	 0.477086
H	 0.096803	 -1.356267	 -0.924704
H	 -0.233803	 -1.785900	 0.736810
C	 1.845540	 -0.635706	 1.981153
H	 1.807402	 0.311226	 0.051862
H	 2.259193	 -1.370996	 -0.000093
C	 3.282322	 -0.256619	 2.324033
H	 1.164547	 0.072136	 2.446242
H	 1.616302	 -1.607111	 2.403842
H	 3.436946	 -0.240014	 3.396508
H	 3.532637	 0.726371	 1.938722
H	 3.985548	 -0.965565	 1.899904

12 9 8 10 F
