%nprocshared=4
%mem=2GB
#HF/cc-pVTZ nosymm scf=tight opt=ModRedundant

Mol

0 1
H	 -1.752232	 -2.214755	 -0.011938
C	 -1.343852	 -1.221619	 -0.018179
N	 -0.058800	 -1.097635	 -0.261688
C	 -2.148159	 -0.124236	 0.219734
C	 0.449026	 0.119242	 -0.273393
H	 -3.196988	 -0.237571	 0.417076
N	 -1.655094	 1.094230	 0.209506
C	 -0.370318	 1.215445	 -0.035100
C	 1.924033	 0.265863	 -0.538106
H	 0.033214	 2.210441	 -0.046812
C	 2.783584	 -0.221309	 0.629493
H	 2.166190	 -0.305657	 -1.426074
H	 2.149226	 1.303901	 -0.752533
H	 3.836171	 -0.131849	 0.388675
H	 2.572123	 -1.259163	 0.851125
H	 2.592914	 0.360915	 1.524035

12 9 5 3 F
