%nprocshared=1
%mem=2GB
#HF/6-31G* nosymm scf=tight 
prop=(read,field)

Mol

0 1
H	 -2.036051	 -1.271730	 0.000000
C	 -1.130686	 -0.690179	 -0.000000
N	 0.000066	 -1.373157	 -0.000000
C	 -1.190148	 0.693593	 0.000000
C	 1.130704	 -0.690087	 -0.000000
H	 -2.139595	 1.196070	 0.000000
C	 -0.000046	 1.399740	 0.000000
H	 2.036065	 -1.271501	 0.000000
C	 1.190111	 0.693687	 0.000000
H	 -0.000091	 2.475160	 0.000000
H	 2.139527	 1.196218	 0.000000

@grid.dat /N
