%nprocshared=1
%mem=2GB
#HF/6-31G* nosymm scf=tight opt=ModRedundant

Mol

0 1
O	 0.989559	 0.273198	 0.937964
C	 1.705091	 0.115954	 0.001797
C	 1.596730	 0.840016	 -1.317998
O	 2.721346	 -0.737485	 -0.000216
C	 0.443334	 1.837351	 -1.369423
H	 2.549516	 1.330235	 -1.498547
H	 1.500522	 0.086360	 -2.094829
C	 0.357618	 2.556636	 -2.716399
H	 0.561959	 2.562704	 -0.570687
H	 -0.488201	 1.317476	 -1.168722
C	 -0.793515	 3.561635	 -2.785175
H	 1.295958	 3.073025	 -2.913516
H	 0.241126	 1.823790	 -3.513423
C	 -0.879396	 4.279118	 -4.131687
H	 -0.677214	 4.295935	 -1.991187
H	 -1.731643	 3.047143	 -2.589342
H	 0.032165	 4.831969	 -4.340559
H	 -1.704694	 4.984116	 -4.149350
H	 -1.030197	 3.573139	 -4.943575
C	 4.024888	 -0.184556	 -0.001949
H	 4.179030	 0.422472	 -0.882452
H	 4.701782	 -1.024608	 -0.003642
H	 4.181981	 0.421185	 0.878906

1 2 4 20 F
