%nprocshared=1
%mem=2GB
#HF/6-31G* nosymm scf=tight 
prop=(read,field)

Mol

0 1
H	 -2.273217	 1.173258	 0.000295
O	 -1.439029	 1.618291	 0.000114
C	 -0.409661	 0.736103	 0.000030
C	 0.868551	 1.272172	 -0.000010
C	 -0.609457	 -0.642674	 0.000010
H	 0.977661	 2.340856	 0.000003
C	 1.967410	 0.434305	 -0.000037
C	 0.513499	 -1.461184	 -0.000004
C	 -2.004880	 -1.225599	 -0.000093
H	 2.956466	 0.856516	 -0.000059
C	 1.795407	 -0.940610	 -0.000030
H	 0.376046	 -2.528635	 -0.000036
H	 -2.571272	 -0.924823	 -0.879114
H	 -1.967446	 -2.307530	 0.000007
H	 -2.571503	 -0.924601	 0.878734
H	 2.645506	 -1.598281	 -0.000057

@grid.dat /N
