%nprocshared=1
%mem=2GB
#HF/6-31G* nosymm scf=tight 

Mol

0 1
H	 -3.135461	 -1.215070	 0.001379
O	 -2.310168	 -0.871793	 -0.309793
C	 -2.026376	 0.340750	 0.341611
C	 -0.673256	 0.843270	 -0.132153
H	 -2.792215	 1.080697	 0.115987
H	 -2.013526	 0.200402	 1.421792
C	 0.486613	 -0.083066	 0.235839
H	 -0.715586	 0.970948	 -1.210718
H	 -0.508072	 1.829858	 0.297090
C	 1.845169	 0.453966	 -0.217745
H	 0.315038	 -1.059899	 -0.204471
H	 0.500862	 -0.228002	 1.315483
C	 3.004869	 -0.468915	 0.155159
H	 1.832597	 0.598420	 -1.296027
H	 2.011817	 1.436604	 0.219401
H	 2.884665	 -1.449684	 -0.295988
H	 3.954719	 -0.064095	 -0.180773
H	 3.066074	 -0.606567	 1.231178

14 10 7 11 F
2 3 4 8 F
1 2 3 4 F
