%nprocshared=4
%mem=2GB
#HF/6-31G* nosymm scf=tight opt=ModRedundant

Mol

0 1
O	 -1.995050	 1.857034	 -0.948247
C	 -1.943270	 0.747973	 -0.510369
C	 -0.816500	 -0.191821	 -0.902141
C	 -2.969747	 0.234579	 0.474591
C	 0.464791	 0.131264	 -0.116614
H	 -0.633137	 -0.061119	 -1.963083
H	 -1.104786	 -1.225485	 -0.733448
C	 1.631333	 -0.777471	 -0.511575
H	 0.715145	 1.171571	 -0.291165
H	 0.275947	 0.028177	 0.950840
C	 2.915987	 -0.544314	 0.291766
H	 1.842303	 -0.648794	 -1.571603
H	 1.326703	 -1.814294	 -0.384896
C	 3.373361	 0.914346	 0.347591
H	 3.708709	 -1.142521	 -0.150311
H	 2.780642	 -0.921148	 1.303579
H	 3.506512	 1.320010	 -0.651625
H	 4.322697	 0.999599	 0.867103
H	 2.660624	 1.545032	 0.868198
H	 -3.548476	 -0.563225	 0.016501
H	 -3.633234	 1.035677	 0.769230
H	 -2.485007	 -0.184628	 1.351573

12 8 11 15 F
