%nprocshared=4
%mem=2GB
#HF/6-31G* nosymm scf=tight opt=ModRedundant

Mol

0 1
O	 -0.988096	 -1.408613	 0.050699
C	 -0.676749	 -0.249230	 -0.009274
C	 -1.746085	 0.827156	 -0.009539
N	 0.623947	 0.147590	 -0.102813
H	 -1.701500	 1.431508	 -0.908902
H	 -2.703425	 0.330732	 0.036390
H	 -1.647323	 1.487769	 0.845106
C	 1.282817	 0.069994	 -1.391900
C	 1.503653	 0.314279	 1.033223
H	 1.934178	 0.927981	 -1.516817
H	 0.542787	 0.066565	 -2.173108
H	 1.885093	 -0.832186	 -1.474093
H	 2.218740	 1.098684	 0.815508
H	 0.959402	 0.605487	 1.917486
H	 2.059996	 -0.595074	 1.253162

8 4 2 3 F
