%nprocshared=4
%mem=2GB
#HF/cc-pVTZ nosymm scf=tight opt=ModRedundant

Mol

0 1
O	 -0.257369	 -0.459271	 1.868653
C	 -0.255557	 0.282767	 0.928390
C	 -1.270484	 1.404438	 0.847083
N	 0.622280	 0.144970	 -0.099307
H	 -1.885607	 1.316412	 -0.039608
H	 -1.895173	 1.337775	 1.722189
H	 -0.786961	 2.373334	 0.826593
C	 1.664396	 -0.854993	 0.000772
C	 0.810602	 1.130782	 -1.136835
H	 2.462727	 -0.615153	 -0.690869
H	 1.261798	 -1.821849	 -0.240651
H	 2.081615	 -0.891605	 1.003877
H	 1.074890	 0.630223	 -2.059455
H	 -0.088236	 1.694639	 -1.318639
H	 1.610482	 1.827020	 -0.894990

2 4 8 10 F
