%nprocshared=4
%mem=2GB
#HF/cc-pVTZ nosymm scf=tight opt=ModRedundant

Mol

0 1
H	 -2.644180	 -0.653737	 1.272255
C	 -2.092774	 -0.380414	 0.391915
O	 -0.808934	 -0.154049	 0.752536
F	 -2.163230	 -1.351640	 -0.507133
F	 -2.627232	 0.691260	 -0.169301
C	 -0.458949	 -0.313860	 2.075893
C	 0.425538	 0.869605	 2.461079
Cl	 0.416096	 -1.835667	 2.328754
H	 -1.312206	 -0.321225	 2.731289
F	 0.782476	 0.785022	 3.717448
F	 -0.256548	 1.979928	 2.308577
F	 1.499878	 0.944871	 1.724614

6 3 2 4 F
