%nprocshared=4
%mem=2GB
#HF/6-31G* nosymm scf=tight opt=ModRedundant

Mol

0 1
O	 0.567091	 -0.227663	 0.003382
C	 1.705091	 0.115954	 0.001797
C	 2.191205	 1.544778	 0.006498
O	 2.721346	 -0.737485	 -0.000216
C	 1.061040	 2.569644	 0.011103
H	 2.835811	 1.665554	 0.872876
H	 2.834358	 1.671748	 -0.860077
C	 1.581623	 4.007706	 0.016734
H	 0.430079	 2.402248	 0.878315
H	 0.429276	 2.409251	 -0.856916
C	 0.461132	 5.049017	 0.022291
H	 2.217297	 4.161168	 0.887576
H	 2.215518	 4.168576	 -0.854001
C	 0.981896	 6.485692	 0.026684
H	 -0.171534	 4.891285	 0.892920
H	 -0.174222	 4.897575	 -0.847495
H	 1.593427	 6.678713	 0.903603
H	 0.164429	 7.199965	 0.030306
H	 1.591144	 6.684915	 -0.850492
C	 4.024888	 -0.184556	 -0.001949
H	 4.179030	 0.422472	 -0.882452
H	 4.701782	 -1.024608	 -0.003642
H	 4.181981	 0.421185	 0.878906

1 2 4 20 F
