%nprocshared=4
%mem=2GB
#HF/cc-pVTZ nosymm scf=tight opt=ModRedundant

Mol

0 1
O	 3.219313	 0.959291	 -0.614106
C	 2.698710	 0.058177	 -0.050237
C	 1.246364	 -0.005813	 0.348416
O	 3.344101	 -1.038700	 0.312317
C	 0.453207	 1.232821	 -0.049003
H	 0.839270	 -0.907818	 -0.092281
H	 1.216683	 -0.160521	 1.422434
C	 -0.998367	 1.217982	 0.432195
H	 0.481498	 1.345443	 -1.127236
H	 0.951413	 2.105557	 0.354893
C	 -1.882951	 0.151251	 -0.211235
H	 -1.429490	 2.193659	 0.228843
H	 -1.019755	 1.099323	 1.513279
C	 -2.216050	 0.452816	 -1.669964
H	 -1.381471	 -0.811877	 -0.149811
H	 -2.809962	 0.048458	 0.345201
C	 -3.104369	 -0.603267	 -2.321387
H	 -1.293000	 0.543200	 -2.237547
H	 -2.706910	 1.421263	 -1.733454
C	 -3.431212	 -0.295930	 -3.778952
H	 -2.615120	 -1.571487	 -2.258901
H	 -4.028588	 -0.692852	 -1.756896
H	 -4.062609	 -1.064010	 -4.210662
H	 -2.528613	 -0.234859	 -4.377863
H	 -3.952329	 0.651173	 -3.871910
C	 4.720529	 -1.114346	 0.001449
H	 4.874321	 -1.055557	 -1.065852
H	 5.057824	 -2.067950	 0.373977
H	 5.264321	 -0.313596	 0.480350

15 11 8 5 F
