%nprocshared=4
%mem=2GB
#HF/cc-pVTZ nosymm scf=tight opt=ModRedundant

Mol

0 1
H	 2.900850	 1.794231	 0.177346
C	 2.318847	 0.879947	 0.223626
C	 0.846778	 1.180343	 -0.023920
H	 2.451649	 0.436759	 1.202845
H	 2.726979	 0.195391	 -0.509548
N	 0.000297	 0.000045	 0.046090
H	 0.517221	 1.882082	 0.729786
H	 0.728060	 1.690167	 -0.984084
C	 -1.359159	 0.315706	 0.454404
C	 0.043844	 -0.787401	 -1.175613
C	 -2.416729	 -0.286720	 -0.460525
H	 -1.478729	 1.390261	 0.442008
H	 -1.539692	 0.003361	 1.486761
C	 -0.232298	 -2.267226	 -0.946918
H	 1.030664	 -0.693899	 -1.607473
H	 -0.651146	 -0.390922	 -1.921069
H	 -2.285276	 0.073129	 -1.473515
H	 -2.371743	 -1.368476	 -0.483209
H	 -3.408658	 -0.007405	 -0.121593
H	 0.495930	 -2.683071	 -0.261597
H	 -1.217257	 -2.441543	 -0.531892
H	 -0.171707	 -2.809105	 -1.884738

3 6 9 11 F
