%nprocshared=1
%mem=2GB
#HF/6-31G* nosymm scf=tight opt=ModRedundant

Mol

0 1
O	 -0.682937	 1.318834	 -0.186099
C	 -0.860635	 0.152188	 -0.042321
C	 -2.173363	 -0.477127	 0.338347
O	 0.083258	 -0.765189	 -0.202595
H	 -2.477673	 -1.180929	 -0.427595
H	 -2.923125	 0.290956	 0.455536
H	 -2.058825	 -1.029004	 1.264191
C	 1.326451	 -0.366206	 -0.775379
C	 2.257459	 0.220923	 0.269202
H	 1.140214	 0.335778	 -1.573924
H	 1.736429	 -1.274604	 -1.192789
H	 3.219964	 0.444195	 -0.180759
H	 1.851309	 1.138495	 0.675982
H	 2.415018	 -0.483452	 1.078799

8 4 2 1 F
