%nprocshared=1
%mem=2GB
#HF/6-31G* nosymm scf=tight opt=ModRedundant

Mol

0 1
O	 -1.725191	 2.076834	 -1.443582
C	 -1.785358	 1.043870	 -0.848771
C	 -0.743291	 -0.039812	 -1.063330
C	 -2.874347	 0.774037	 0.165463
C	 0.546724	 0.279624	 -0.290696
H	 -0.527669	 -0.083052	 -2.125376
H	 -1.129665	 -1.007708	 -0.756868
C	 1.631333	 -0.777471	 -0.511575
H	 0.896071	 1.256583	 -0.605165
H	 0.328084	 0.351512	 0.773624
C	 2.915987	 -0.544314	 0.291766
H	 1.874231	 -0.825030	 -1.571511
H	 1.229224	 -1.753188	 -0.246749
C	 3.373361	 0.914346	 0.347591
H	 3.708709	 -1.142521	 -0.150311
H	 2.780642	 -0.921148	 1.303579
H	 3.506512	 1.320010	 -0.651625
H	 4.322697	 0.999599	 0.867103
H	 2.660624	 1.545032	 0.868198
H	 -3.515559	 -0.027599	 -0.191596
H	 -3.466198	 1.665570	 0.319301
H	 -2.448068	 0.446559	 1.109311

12 8 11 15 F
