%nprocshared=1
%mem=2GB
#HF/6-31G* nosymm scf=tight 

Mol

0 1
H	 -3.420663	 1.227371	 -1.044276
O	 -3.452007	 0.283848	 -0.965577
C	 -3.181085	 -0.079926	 0.364119
C	 -1.765924	 0.277073	 0.805136
H	 -3.327791	 -1.152017	 0.410903
H	 -3.905698	 0.375695	 1.036898
C	 -1.460114	 -0.114569	 2.251378
H	 -1.053374	 -0.205184	 0.135313
H	 -1.626806	 1.348872	 0.674310
C	 -0.030664	 0.227568	 2.676576
H	 -1.635224	 -1.178621	 2.377237
H	 -2.163440	 0.390458	 2.911434
C	 0.266113	 -0.162003	 4.127178
H	 0.666305	 -0.271771	 2.007761
H	 0.138463	 1.296345	 2.551217
C	 1.657914	 0.240989	 4.627820
H	 0.140937	 -1.237407	 4.243505
H	 -0.479154	 0.300530	 4.770960
C	 2.816203	 -0.478078	 3.933765
H	 1.711876	 0.038446	 5.694757
H	 1.782371	 1.316396	 4.517305
H	 2.711667	 -1.556623	 4.017149
H	 3.765420	 -0.203425	 4.383643
H	 2.873780	 -0.231844	 2.878674

20 16 13 17 F
17 13 10 7 F
13 10 7 11 F
11 7 4 3 F
1 2 3 5 F
