%nprocshared=4
%mem=2GB
#HF/cc-pVTZ nosymm scf=tight opt=ModRedundant

Mol

0 1
O	 0.395927	 1.296676	 -0.000076
C	 0.503051	 0.114301	 -0.000074
C	 -0.701422	 -0.805636	 -0.000109
C	 1.858118	 -0.556123	 0.000212
C	 -0.386347	 -2.239532	 0.395808
H	 -1.443738	 -0.373602	 0.666035
H	 -1.144350	 -0.765578	 -0.991900
H	 0.032502	 -2.283712	 1.392223
H	 -1.286752	 -2.841794	 0.375611
H	 0.334540	 -2.679179	 -0.280404
H	 1.961106	 -1.191101	 -0.872843
H	 2.636688	 0.191085	 -0.000109
H	 1.961070	 -1.190284	 0.873873

6 3 2 1 F
