%nprocshared=1
%mem=2GB
#HF/6-31G* nosymm scf=tight 

Mol

0 1
H	 -3.161837	 0.500524	 -0.000234
C	 -2.367097	 -0.232926	 -0.000000
O	 -1.158440	 0.455814	 -0.000122
H	 -2.468853	 -0.861886	 -0.882833
H	 -2.468942	 -0.861421	 0.883154
C	 -0.029776	 -0.365156	 0.000148
C	 1.212217	 0.508981	 0.000007
H	 -0.036772	 -1.013236	 -0.877259
H	 -0.036869	 -1.012778	 0.877897
C	 1.096818	 1.688170	 -0.964917
H	 1.381326	 0.866935	 1.010914
H	 2.066983	 -0.107325	 -0.261220
H	 0.260775	 2.331929	 -0.706012
H	 1.996319	 2.294260	 -0.944980
H	 0.950572	 1.350750	 -1.987249

6 3 2 4 F
8 6 3 2 F
