%nprocshared=4
%mem=2GB
#HF/cc-pVTZ nosymm scf=tight opt=ModRedundant

Mol

0 1
H	 -1.835082	 1.385983	 0.000069
C	 -1.300516	 0.441153	 -0.000028
O	 -0.006604	 0.654344	 -0.000106
O	 -1.828920	 -0.612308	 0.000113
C	 0.852093	 -0.482521	 -0.000161
C	 2.216836	 -0.029523	 -0.461651
H	 0.437374	 -1.233399	 -0.657540
H	 0.885018	 -0.895397	 0.998044
H	 2.168069	 0.384969	 -1.460545
H	 2.896176	 -0.873455	 -0.473027
H	 2.617956	 0.724695	 0.203350

7 5 3 2 F
