%nprocshared=4
%mem=2GB
#HF/cc-pVTZ nosymm scf=tight opt=ModRedundant

Mol

0 1
O	 0.451721	 0.683649	 -0.924434
C	 0.029490	 0.077183	 0.000078
C	 -1.232113	 -0.748027	 0.000015
O	 0.625493	 0.045622	 1.180339
C	 -2.501422	 0.088592	 -0.000052
H	 -1.188777	 -1.400384	 -0.865133
H	 -1.188857	 -1.400312	 0.865225
H	 -2.548170	 0.725504	 -0.873205
H	 -3.371613	 -0.556398	 -0.000040
H	 -2.548215	 0.725571	 0.873047
C	 1.825020	 0.779709	 1.321379
H	 2.575690	 0.419133	 0.633837
H	 2.148636	 0.628907	 2.338412
H	 1.653186	 1.829741	 1.136574

4 2 3 6 F
