%nprocshared=4
%mem=2GB
#HF/cc-pVTZ nosymm scf=tight opt=ModRedundant

Mol

0 1
H	 0.967898	 0.873609	 2.040483
C	 0.025621	 0.962157	 1.519921
O	 -0.000000	 0.000000	 0.518769
H	 -0.783306	 0.817021	 2.232962
H	 -0.054607	 1.966627	 1.109483
C	 -1.165153	 0.000000	 -0.236961
H	 -1.229451	 0.882440	 -0.870223
H	 -2.002557	 0.000000	 0.445289
H	 -1.229451	 -0.882440	 -0.870223

2 3 6 7 F
