%nprocshared=4
%mem=2GB
#HF/cc-pVTZ nosymm scf=tight opt=ModRedundant

Mol

0 1
H	 1.166964	 -1.062386	 0.758429
O	 1.324748	 -0.612467	 -0.052206
C	 0.706474	 0.636793	 -0.025501
C	 0.456264	 1.240266	 -1.378588
H	 1.359480	 1.290123	 0.541108
H	 -0.235005	 0.591994	 0.518843
C	 0.858307	 0.744849	 -2.528036
H	 -0.103845	 2.160746	 -1.362978
H	 1.432690	 -0.160138	 -2.583305
H	 0.634687	 1.240118	 -3.453650

5 3 2 1 F
