%nprocshared=1
%mem=2GB
#HF/6-31G* nosymm scf=tight opt=ModRedundant

Mol

0 1
O	 3.249501	 1.087916	 -0.274155
C	 2.701189	 0.057885	 -0.047330
C	 1.212038	 -0.180139	 -0.114886
O	 3.347903	 -1.046386	 0.304773
C	 0.424359	 1.060898	 -0.529020
H	 1.052848	 -1.009199	 -0.796435
H	 0.896950	 -0.535130	 0.863070
C	 -1.095313	 0.865214	 -0.500780
H	 0.737120	 1.369305	 -1.522088
H	 0.689864	 1.876387	 0.134988
C	 -1.636905	 -0.131407	 -1.529631
H	 -1.562625	 1.831808	 -0.674099
H	 -1.402636	 0.556602	 0.497379
C	 -3.164958	 -0.208965	 -1.535673
H	 -1.287458	 0.152636	 -2.521108
H	 -1.235802	 -1.123883	 -1.337070
C	 -3.717242	 -1.205634	 -2.556341
H	 -3.574487	 0.778613	 -1.741124
H	 -3.515568	 -0.482494	 -0.541714
C	 -5.244000	 -1.274236	 -2.558650
H	 -3.367024	 -0.934360	 -3.550021
H	 -3.312426	 -2.194225	 -2.349961
H	 -5.604952	 -1.988802	 -3.291941
H	 -5.679470	 -0.307813	 -2.796530
H	 -5.624367	 -1.576790	 -1.587024
C	 4.728119	 -1.109107	 -0.004993
H	 4.882018	 -1.033965	 -1.071845
H	 5.068212	 -2.067527	 0.355250
H	 5.265056	 -0.311663	 0.488280

1 2 4 26 F
