%nprocshared=4
%mem=2GB
#HF/6-31G* nosymm scf=tight opt=ModRedundant

Mol

0 1
O	 0.625848	 1.349995	 -0.000749
C	 0.486307	 0.169203	 0.000779
C	 1.608116	 -0.841643	 0.000302
O	 -0.698257	 -0.426125	 0.001050
C	 2.990107	 -0.200498	 -0.000684
H	 1.468623	 -1.481519	 -0.865924
H	 1.469683	 -1.481289	 0.866878
H	 3.129736	 0.423364	 -0.875135
H	 3.757882	 -0.966877	 -0.001197
H	 3.130964	 0.423383	 0.873533
C	 -1.480346	 -0.335460	 -1.185338
C	 -2.770724	 -1.087441	 -0.936819
H	 -0.922400	 -0.760190	 -2.008675
H	 -1.661777	 0.706905	 -1.409277
H	 -2.571613	 -2.128321	 -0.708604
H	 -3.399772	 -1.043691	 -1.820014
H	 -3.315155	 -0.653233	 -0.105968

11 4 2 3 F
