%nprocshared=4
%mem=2GB
#HF/cc-pVTZ nosymm scf=tight opt=ModRedundant

Mol

0 1
H	 -0.485477	 -1.631340	 -0.153906
N	 -0.625934	 -0.663929	 -0.000707
C	 -1.978635	 -0.158664	 0.001017
C	 0.462495	 0.112303	 0.197708
H	 -2.519057	 -0.493535	 -0.876362
H	 -1.938890	 0.917202	 -0.004137
H	 -2.514266	 -0.485137	 0.884506
C	 1.780699	 -0.629059	 0.158470
O	 0.401261	 1.289669	 0.395532
H	 1.919600	 -1.102718	 -0.806389
H	 2.580988	 0.070991	 0.333208
H	 1.804006	 -1.401373	 0.918474

4 2 3 5 F
