%nprocshared=4
%mem=2GB
#HF/cc-pVTZ nosymm scf=tight opt=ModRedundant

Mol

0 1
H	 -2.266619	 1.169943	 0.000098
O	 -1.438073	 1.611259	 0.000041
C	 -0.408657	 0.734701	 0.000005
C	 0.466736	 0.799380	 1.068140
C	 -0.226046	 -0.193332	 -1.018583
H	 0.291587	 1.529314	 1.833941
C	 1.539195	 -0.064680	 1.132947
C	 0.859864	 -1.048920	 -0.927504
C	 -1.182239	 -0.262652	 -2.183526
H	 2.214633	 -0.008635	 1.965186
C	 1.742234	 -0.995957	 0.132983
H	 1.014846	 -1.771900	 -1.706766
H	 -1.209560	 0.670816	 -2.738693
H	 -0.886267	 -1.038769	 -2.874528
H	 -2.195165	 -0.486637	 -1.860823
H	 2.574317	 -1.671305	 0.176720

4 3 2 1 F
