%nprocshared=1
%mem=2GB
#HF/6-31G* nosymm scf=tight 

Mol

0 1
H	 3.517553	 4.543972	 -2.426016
C	 3.066687	 3.697523	 -1.939163
C	 1.807356	 3.816844	 -1.370836
C	 3.746489	 2.491069	 -1.881978
H	 1.281222	 4.753071	 -1.415888
C	 1.228284	 2.728036	 -0.745012
H	 4.722611	 2.400460	 -2.323091
C	 3.168790	 1.399816	 -1.256034
H	 0.254639	 2.802055	 -0.299805
C	 1.906775	 1.516168	 -0.685470
H	 3.691249	 0.464302	 -1.209440
C	 1.239129	 0.373821	 0.000060
O	 1.970282	 -0.730723	 0.000018
O	 0.159709	 0.436408	 0.499853
C	 3.377318	 -0.566646	 -0.000065
H	 3.695437	 -0.028981	 -0.881264
H	 3.789299	 -1.563704	 0.000236
H	 3.695516	 -0.028316	 0.880770

12 13 15 16 F
13 12 10 6 F
