%nprocshared=4
%mem=2GB
#HF/cc-pVTZ nosymm scf=tight opt=ModRedundant

Mol

0 1
O	 -1.308941	 -0.010188	 -2.561989
C	 -0.334578	 0.568023	 -2.204608
C	 -0.169361	 1.004691	 -0.762362
C	 0.794624	 0.881037	 -3.157337
C	 0.376695	 -0.140025	 0.100361
H	 -1.143839	 1.302358	 -0.396441
H	 0.494090	 1.860882	 -0.702072
C	 1.630207	 -0.772146	 -0.501001
H	 0.585065	 0.249368	 1.088887
H	 -0.386444	 -0.905336	 0.219595
C	 2.907848	 -0.545876	 0.309149
H	 1.772784	 -0.391628	 -1.509394
H	 1.468529	 -1.842059	 -0.599744
C	 3.373802	 0.906639	 0.372125
H	 3.699140	 -1.146831	 -0.127906
H	 2.764321	 -0.923458	 1.318191
H	 3.519798	 1.311927	 -0.623875
H	 4.316899	 0.983758	 0.900700
H	 2.661122	 1.540651	 0.885346
H	 0.847686	 1.954689	 -3.307185
H	 0.627759	 0.392907	 -4.105205
H	 1.745377	 0.568666	 -2.740104

3 5 8 12 F
