%nprocshared=4
%mem=2GB
#HF/cc-pVTZ nosymm scf=tight opt=ModRedundant

Mol

0 1
H	 -2.816458	 -0.841657	 -0.064679
N	 -1.878861	 -0.711874	 0.250184
C	 -1.341419	 0.551458	 -0.220231
H	 -1.333674	 -1.468530	 -0.105118
C	 0.082190	 0.731516	 0.254705
H	 -1.357065	 0.652078	 -1.304747
H	 -1.939897	 1.357530	 0.189797
O	 0.524915	 2.000614	 -0.120917
H	 0.126712	 0.625212	 1.337705
H	 0.715085	 -0.033519	 -0.189247
C	 1.850185	 2.266456	 0.198782
H	 2.077767	 3.268911	 -0.133898
H	 2.019901	 2.207774	 1.271838
H	 2.525591	 1.571526	 -0.294636

8 5 3 6 F
