%nprocshared=4
%mem=2GB
#HF/cc-pVTZ nosymm scf=tight opt=ModRedundant

Mol

0 1
H	 -2.816458	 -0.841657	 -0.064679
N	 -1.878861	 -0.711874	 0.250184
C	 -1.341419	 0.551458	 -0.220231
H	 -1.333674	 -1.468530	 -0.105118
C	 0.158260	 0.460701	 -0.385678
H	 -1.771975	 0.880572	 -1.165139
H	 -1.555142	 1.316200	 0.518378
O	 0.444827	 -0.457590	 -1.396780
H	 0.561485	 1.438990	 -0.643619
H	 0.610575	 0.141581	 0.550539
C	 1.799685	 -0.684714	 -1.601706
H	 1.898909	 -1.403543	 -2.402222
H	 2.317423	 0.228775	 -1.886626
H	 2.275287	 -1.085527	 -0.709677

6 3 2 4 F
