%nprocshared=4
%mem=2GB
#HF/cc-pVTZ nosymm scf=tight opt=ModRedundant

Mol

0 1
O	 -0.207832	 0.421413	 0.926788
C	 0.485107	 0.171416	 -0.000134
C	 1.606966	 -0.836201	 0.000174
O	 0.362348	 0.755078	 -1.179479
C	 2.988788	 -0.202529	 -0.000115
H	 1.465110	 -1.474645	 -0.864821
H	 1.465209	 -1.474077	 0.865596
H	 3.131767	 0.419673	 -0.873407
H	 3.750876	 -0.972315	 0.000098
H	 3.131883	 0.420264	 0.872742
C	 -0.657577	 1.732103	 -1.332656
C	 -0.593948	 2.247428	 -2.751416
H	 -0.497955	 2.524519	 -0.615060
H	 -1.615260	 1.279555	 -1.117322
H	 0.369523	 2.697288	 -2.955678
H	 -1.361418	 2.997310	 -2.902737
H	 -0.754206	 1.445272	 -3.460807

4 2 3 6 F
