%nprocshared=1
%mem=2GB
#HF/6-31G* nosymm scf=tight 

Mol

0 1
O	 3.225979	 0.970355	 -0.599647
C	 2.701189	 0.057885	 -0.047330
C	 1.245376	 -0.013843	 0.345420
O	 3.347903	 -1.046386	 0.304773
C	 0.426388	 1.168081	 -0.168808
H	 0.863910	 -0.962128	 -0.018491
H	 1.206024	 -0.074633	 1.430064
C	 -1.029652	 1.164493	 0.309135
H	 0.457226	 1.180590	 -1.254170
H	 0.904131	 2.086529	 0.154665
C	 -1.883193	 0.013241	 -0.230492
H	 -1.485135	 2.105159	 0.008457
H	 -1.053845	 1.152419	 1.397840
C	 -3.351940	 0.115655	 0.185795
H	 -1.817804	 -0.001561	 -1.317379
H	 -1.486777	 -0.939779	 0.112405
C	 -4.213402	 -1.032355	 -0.343437
H	 -3.760298	 1.061738	 -0.165494
H	 -3.417289	 0.141319	 1.272428
C	 -5.679464	 -0.920553	 0.073532
H	 -4.148446	 -1.060072	 -1.429096
H	 -3.809338	 -1.978631	 0.010224
H	 -6.263988	 -1.748091	 -0.316493
H	 -6.122784	 0.000142	 -0.295229
H	 -5.780900	 -0.924882	 1.155181
C	 4.728119	 -1.109107	 -0.004993
H	 4.882018	 -1.033965	 -1.071845
H	 5.068212	 -2.067527	 0.355250
H	 5.265056	 -0.311663	 0.488280

21 17 14 11 F
17 14 11 15 F
15 11 8 5 F
6 3 5 9 F
11 8 5 9 F
2 4 26 27 F
1 2 4 26 F
