%nprocshared=4
%mem=2GB
#HF/6-31G* nosymm scf=tight opt=ModRedundant

Mol

0 1
O	 3.225979	 0.970355	 -0.599647
C	 2.701189	 0.057885	 -0.047330
C	 1.245376	 -0.013843	 0.345420
O	 3.347903	 -1.046386	 0.304773
C	 1.038277	 -0.277272	 1.835329
H	 0.784115	 0.915733	 0.028688
H	 0.786253	 -0.793441	 -0.257184
C	 -0.431041	 -0.457187	 2.231850
H	 1.476878	 0.534781	 2.407447
H	 1.591756	 -1.169027	 2.108931
C	 -1.299829	 0.794032	 2.074472
H	 -0.462900	 -0.773618	 3.271840
H	 -0.864896	 -1.272880	 1.655287
C	 -2.728117	 0.594752	 2.585626
H	 -0.837574	 1.620412	 2.612279
H	 -1.339506	 1.093637	 1.029659
C	 -3.606932	 1.836992	 2.428605
H	 -2.697760	 0.307433	 3.635274
H	 -3.187259	 -0.238380	 2.055740
C	 -5.030523	 1.630861	 2.944937
H	 -3.149068	 2.670746	 2.956674
H	 -3.642034	 2.123166	 1.379485
H	 -5.628539	 2.528278	 2.819929
H	 -5.031516	 1.377365	 4.001315
H	 -5.527968	 0.825154	 2.412340
C	 4.728119	 -1.109107	 -0.004993
H	 4.882018	 -1.033965	 -1.071845
H	 5.068212	 -2.067527	 0.355250
H	 5.265056	 -0.311663	 0.488280

6 3 2 1 F
