%nprocshared=4
%mem=2GB
#HF/cc-pVTZ nosymm scf=tight opt=ModRedundant

Mol

0 1
O	 0.623971	 1.347241	 -0.000777
C	 0.485107	 0.171416	 -0.000134
C	 1.606966	 -0.836201	 0.000174
O	 -0.695554	 -0.422406	 0.000602
C	 2.988788	 -0.202529	 -0.000115
H	 1.465110	 -1.474645	 -0.864821
H	 1.465209	 -1.474077	 0.865596
H	 3.131767	 0.419673	 -0.873407
H	 3.750876	 -0.972315	 0.000098
H	 3.131883	 0.420264	 0.872742
C	 -1.650404	 0.001890	 0.963162
C	 -2.904331	 -0.816297	 0.761358
H	 -1.839894	 1.057781	 0.830747
H	 -1.240012	 -0.138357	 1.953229
H	 -3.305481	 -0.668603	 -0.233447
H	 -3.656109	 -0.516924	 1.482077
H	 -2.702222	 -1.871538	 0.895486

11 4 2 3 F
