%nprocshared=4
%mem=2GB
#HF/cc-pVTZ nosymm scf=tight opt=ModRedundant

Mol

0 1
H	 -1.088256	 -1.364742	 0.152233
O	 -1.432053	 -0.565244	 -0.200812
C	 -0.727158	 0.534527	 0.310686
C	 0.680222	 0.664433	 -0.252229
H	 -1.306802	 1.408001	 0.044211
H	 -0.690821	 0.490158	 1.397609
C	 1.750756	 0.904354	 0.808168
H	 0.913754	 -0.235277	 -0.811887
H	 0.682841	 1.488113	 -0.960885
H	 1.818982	 0.072469	 1.500582
H	 2.727174	 1.022668	 0.354116
H	 1.542917	 1.803128	 1.380850

8 4 3 2 F
