%nprocshared=1
%mem=2GB
#HF/6-31G* nosymm scf=tight 

Mol

0 1
H	 -3.261111	 -0.295142	 1.469456
C	 -3.306842	 -0.277400	 0.373456
C	 -2.660244	 0.921717	 -0.272021
O	 -3.838538	 -1.161155	 -0.216482
C	 -1.139743	 0.953813	 -0.063929
H	 -2.918635	 0.924527	 -1.324606
H	 -3.102688	 1.807196	 0.182760
C	 -0.401248	 -0.177896	 -0.783067
H	 -0.764597	 1.910204	 -0.415874
H	 -0.920123	 0.916409	 1.001962
C	 1.113829	 -0.126726	 -0.576335
H	 -0.624539	 -0.129023	 -1.846834
H	 -0.777439	 -1.140106	 -0.440765
C	 1.850670	 -1.250448	 -1.310001
H	 1.482261	 0.839982	 -0.910199
H	 1.334657	 -0.187869	 0.488504
C	 3.363562	 -1.289279	 -1.065624
H	 1.661989	 -1.166815	 -2.379159
H	 1.426843	 -2.203784	 -1.001399
C	 4.128311	 -0.086867	 -1.621486
H	 3.761041	 -2.194056	 -1.518766
H	 3.553839	 -1.376693	 0.002119
H	 3.943749	 0.034930	 -2.685615
H	 3.846081	 0.837548	 -1.128761
H	 5.197931	 -0.214309	 -1.484857

6 3 5 8 F
3 5 8 12 F
12 8 11 14 F
8 11 14 18 F
20 17 14 18 F
