%nprocshared=1
%mem=2GB
#HF/6-31G* nosymm scf=tight 

Mol

0 1
O	 0.363425	 1.059132	 -0.778111
C	 0.486307	 0.169203	 0.000779
C	 1.608116	 -0.841643	 0.000302
O	 -0.365418	 -0.057217	 0.991185
C	 2.990107	 -0.200498	 -0.000684
H	 1.468623	 -1.481519	 -0.865924
H	 1.469683	 -1.481289	 0.866878
H	 3.129736	 0.423364	 -0.875135
H	 3.757882	 -0.966877	 -0.001197
H	 3.130964	 0.423383	 0.873533
C	 -1.479223	 0.821176	 1.114740
C	 -2.292972	 0.357637	 2.304385
H	 -2.055386	 0.790676	 0.200032
H	 -1.118165	 1.832023	 1.246711
H	 -2.642559	 -0.658159	 2.159109
H	 -3.155930	 1.002432	 2.435496
H	 -1.700311	 0.388908	 3.211596

2 4 11 13 F
11 4 2 3 F
