%nprocshared=1
%mem=2GB
#HF/6-31G* nosymm scf=tight opt=ModRedundant

Mol

0 1
H	 -2.083118	 1.361286	 -2.122086
O	 -2.266642	 1.911087	 -1.372492
C	 -1.145330	 1.933424	 -0.538152
C	 -0.793441	 0.596080	 0.058728
H	 -1.372043	 2.637561	 0.254309
H	 -0.277916	 2.328220	 -1.066123
C	 -1.530462	 -0.493172	 -0.025500
H	 0.143516	 0.568686	 0.593371
H	 -1.092586	 -1.461565	 -0.186463
H	 -2.602122	 -0.450675	 0.050101

3 4 7 9 F
