%nprocshared=4
%mem=2GB
#HF/cc-pVTZ nosymm scf=tight opt=ModRedundant

Mol

0 1
H	 -1.216336	 -1.856801	 -0.316304
C	 -1.664029	 -1.057371	 0.237584
C	 -2.105997	 -0.000418	 -0.398703
H	 -1.740424	 -1.144976	 1.303552
O	 -1.857689	 0.207286	 -1.712105
H	 -2.700125	 0.753434	 0.084874
C	 -0.679850	 -0.279327	 -2.249714
C	 -0.843806	 -1.683548	 -2.794062
H	 0.128468	 -0.294093	 -1.528481
H	 -0.399105	 0.358048	 -3.074562
F	 0.294611	 -2.084753	 -3.323326
F	 -1.169748	 -2.540975	 -1.850618
F	 -1.764778	 -1.746965	 -3.724786

6 3 5 7 F
