%nprocshared=4
%mem=2GB
#HF/6-31G* nosymm scf=tight opt=ModRedundant

Mol

0 1
H	 -2.798360	 -0.862255	 -0.071053
N	 -1.863561	 -0.715187	 0.256814
C	 -1.344686	 0.554728	 -0.219830
H	 -1.300452	 -1.461917	 -0.101532
C	 -1.561016	 0.673596	 -1.713887
H	 -1.796219	 1.422446	 0.263063
H	 -0.277839	 0.590064	 -0.021415
O	 -2.938413	 0.706462	 -1.956345
H	 -1.092727	 1.582476	 -2.091089
H	 -1.109457	 -0.178171	 -2.217695
C	 -3.283794	 0.728998	 -3.304593
H	 -4.363253	 0.754593	 -3.366333
H	 -2.882436	 1.609275	 -3.803599
H	 -2.921563	 -0.156562	 -3.822647

6 3 2 4 F
