%nprocshared=4
%mem=2GB
#HF/cc-pVTZ nosymm scf=tight opt=ModRedundant

Mol

0 1
O	 0.402258	 0.253316	 0.931168
C	 1.121787	 0.124983	 0.000110
C	 0.982804	 0.840911	 -1.318827
O	 2.167739	 -0.685178	 -0.000678
C	 -0.205716	 1.789408	 -1.379633
H	 1.914910	 1.366779	 -1.498054
H	 0.919300	 0.081210	 -2.091020
C	 -0.316190	 2.497158	 -2.726925
H	 -0.119746	 2.522641	 -0.585581
H	 -1.116319	 1.235870	 -1.179778
C	 -1.502813	 3.452019	 -2.798028
H	 0.600368	 3.047316	 -2.923110
H	 -0.401891	 1.757420	 -3.518556
H	 -1.428352	 4.224631	 -2.040327
H	 -1.556237	 3.939758	 -3.764430
H	 -2.437879	 2.925396	 -2.640228
C	 3.449556	 -0.089977	 -0.000570
H	 3.585694	 0.522473	 -0.879546
H	 4.155805	 -0.904274	 -0.001389
H	 3.586173	 0.521118	 0.879272

1 2 4 17 F
