%nprocshared=1
%mem=2GB
#HF/6-31G* nosymm scf=tight 

Mol

0 1
H	 -2.694352	 -1.761941	 2.998776
C	 -2.573133	 -1.352857	 2.014592
C	 -1.389745	 -1.356421	 1.445750
H	 -3.434218	 -0.947485	 1.517483
O	 -1.180634	 -0.819263	 0.215062
H	 -0.516438	 -1.764004	 1.923670
C	 0.051604	 -1.018856	 -0.387932
C	 1.043764	 0.054862	 -0.001873
H	 -0.017620	 -1.041351	 -1.469781
H	 0.437898	 -1.966374	 -0.042284
F	 2.212596	 -0.199467	 -0.571921
F	 0.652529	 1.252447	 -0.405055
F	 1.230877	 0.110694	 1.300533

11 8 7 9 F
6 3 2 1 F
6 3 5 7 F
