%nprocshared=1
%mem=2GB
#HF/6-31G* nosymm scf=tight opt=ModRedundant

Mol

0 1
H	 -2.516713	 -1.678330	 -0.966579
N	 -1.611610	 -1.607266	 -0.543833
C	 -1.444639	 -0.316880	 0.101249
H	 -0.932626	 -1.706498	 -1.273382
C	 -0.057860	 -0.214163	 0.700772
H	 -1.593331	 0.531216	 -0.568546
H	 -2.173879	 -0.231906	 0.901106
O	 0.874168	 -0.245412	 -0.342030
H	 0.041265	 0.713659	 1.263762
H	 0.109031	 -1.046409	 1.381028
C	 2.202317	 -0.244239	 0.074611
H	 2.711377	 -1.041390	 -0.449894
H	 2.692099	 0.699270	 -0.159667
H	 2.283185	 -0.418429	 1.145558

5 8 11 13 F
