%nprocshared=4
%mem=2GB
#HF/cc-pVTZ nosymm scf=tight opt=ModRedundant

Mol

0 1
O	 -2.081319	 -0.951530	 -0.502732
N	 -1.613558	 0.006676	 0.014756
C	 -0.329345	 -0.171618	 0.743966
O	 -2.068523	 1.100482	 -0.024385
C	 0.835904	 0.041968	 -0.213982
H	 -0.346048	 -1.174374	 1.137184
H	 -0.333613	 0.555559	 1.538590
C	 2.177039	 -0.130175	 0.494460
H	 0.754456	 -0.665923	 -1.030569
H	 0.765464	 1.037260	 -0.637266
C	 3.271973	 -0.623983	 -0.444557
H	 2.063518	 -0.830036	 1.317105
H	 2.477394	 0.816562	 0.933644
H	 3.014374	 -1.585939	 -0.873487
H	 3.429703	 0.071849	 -1.261047
H	 4.211830	 -0.736355	 0.081944

11 8 5 9 F
