%nprocshared=4
%mem=2GB
#HF/cc-pVTZ nosymm scf=tight opt=ModRedundant

Mol

0 1
H	 -2.413922	 1.021787	 2.232841
C	 -2.113969	 0.016135	 1.947228
O	 -0.842774	 0.004024	 1.389146
H	 -2.092996	 -0.604520	 2.831103
H	 -2.857064	 -0.381712	 1.258451
C	 -0.718530	 0.758693	 0.228682
C	 0.718529	 0.758687	 -0.228709
H	 -1.340615	 0.339840	 -0.562230
H	 -1.039193	 1.783985	 0.400091
O	 1.401606	 -0.295166	 0.366636
H	 0.748705	 0.673477	 -1.312803
H	 1.176496	 1.708671	 0.046552
C	 2.714315	 -0.441627	 -0.061017
H	 2.765292	 -0.641548	 -1.128869
H	 3.305661	 0.447341	 0.150952
H	 3.143725	 -1.278506	 0.470147

3 6 7 11 F
