%nprocshared=4
%mem=2GB
#HF/cc-pVTZ nosymm scf=tight opt=ModRedundant

Mol

0 1
O	 2.884325	 -1.188957	 -0.747062
C	 2.574127	 -2.072921	 -0.023620
C	 3.524427	 -3.028223	 0.652142
O	 1.317782	 -2.342573	 0.292610
C	 4.988199	 -2.760441	 0.325158
H	 3.327763	 -2.966947	 1.715684
H	 3.234816	 -4.030972	 0.353896
C	 5.431872	 -1.324357	 0.607388
H	 5.173076	 -3.004135	 -0.715277
H	 5.600816	 -3.440708	 0.903903
C	 5.011017	 -0.772272	 1.968450
H	 5.017741	 -0.686525	 -0.167745
H	 6.512896	 -1.253888	 0.508895
C	 5.317405	 -1.726262	 3.119891
H	 5.519119	 0.173593	 2.141782
H	 3.947527	 -0.551996	 1.970256
C	 4.466147	 -2.992690	 3.102804
H	 5.168821	 -1.208250	 4.064310
H	 6.368966	 -2.002029	 3.087676
C	 4.776761	 -3.939760	 4.257081
H	 3.415133	 -2.718750	 3.135158
H	 4.615641	 -3.513089	 2.160630
H	 4.156106	 -4.827461	 4.215171
H	 4.603010	 -3.459909	 5.214506
H	 5.813234	 -4.259672	 4.232800
C	 0.824678	 -3.623490	 -0.043565
H	 -0.139967	 -3.792406	 0.411591
H	 1.544729	 -4.329140	 0.337866
H	 0.731980	 -3.727573	 -1.114467

1 2 4 26 F
