%nprocshared=4
%mem=2GB
#HF/cc-pVTZ nosymm scf=tight opt=ModRedundant

Mol

0 1
O	 -2.071633	 -1.227563	 -0.223463
C	 -1.652164	 -0.152425	 0.058082
C	 -0.327811	 0.006324	 0.778296
C	 -2.402515	 1.108629	 -0.298924
C	 -0.524330	 0.016566	 2.299052
H	 0.349242	 -0.794618	 0.500415
H	 0.106920	 0.945676	 0.461333
C	 -1.259316	 1.260466	 2.789703
H	 0.440831	 -0.047048	 2.795148
H	 -1.078357	 -0.871425	 2.583464
C	 -1.468172	 1.269021	 4.300156
H	 -0.703203	 2.146734	 2.496800
H	 -2.222184	 1.325075	 2.291456
H	 -0.520283	 1.240466	 4.827151
H	 -2.048996	 0.410407	 4.619208
H	 -1.995353	 2.161369	 4.616694
H	 -3.240910	 0.874416	 -0.936711
H	 -1.747554	 1.818823	 -0.790984
H	 -2.760419	 1.579708	 0.610998

5 3 2 4 F
