%nprocshared=4
%mem=2GB
#HF/cc-pVTZ nosymm scf=tight opt=ModRedundant

Mol

0 1
O	 0.715056	 0.657107	 0.976057
C	 1.121787	 0.124983	 0.000110
C	 0.539391	 0.268507	 -1.382524
O	 2.167739	 -0.685178	 -0.000678
C	 -0.669836	 1.190275	 -1.446095
H	 1.335541	 0.619307	 -2.031035
H	 0.292196	 -0.728757	 -1.731551
C	 -1.233302	 1.313256	 -2.858784
H	 -0.392888	 2.170479	 -1.074557
H	 -1.437446	 0.820889	 -0.775369
C	 -2.444294	 2.236660	 -2.934368
H	 -0.458693	 1.680611	 -3.526819
H	 -1.508829	 0.328031	 -3.225736
H	 -2.191971	 3.239318	 -2.606350
H	 -2.822644	 2.304951	 -3.947711
H	 -3.249765	 1.876889	 -2.303209
C	 3.449556	 -0.089977	 -0.000570
H	 3.585694	 0.522473	 -0.879546
H	 4.155805	 -0.904274	 -0.001389
H	 3.586173	 0.521118	 0.879272

1 2 4 17 F
