%nprocshared=4
%mem=2GB
#HF/cc-pVTZ nosymm scf=tight opt=ModRedundant

Mol

0 1
H	 3.083659	 -1.378387	 0.000000
O	 2.179005	 -1.633391	 0.000000
C	 1.366950	 -0.558201	 0.000000
C	 0.110494	 -0.579111	 -0.586141
C	 1.823565	 0.591903	 0.610560
H	 -0.243631	 -1.475892	 -1.061336
C	 -0.685356	 0.548241	 -0.560525
H	 2.793481	 0.611229	 1.064137
C	 1.019466	 1.717223	 0.631669
H	 -1.655636	 0.520344	 -1.017253
C	 -0.236006	 1.702765	 0.048226
C	 1.499553	 2.962440	 1.286138
H	 -0.852617	 2.580955	 0.069721
O	 2.551514	 3.084565	 1.813285
H	 0.793977	 3.798257	 1.251902

4 3 2 1 F
