%nprocshared=4
%mem=2GB
#HF/cc-pVTZ nosymm scf=tight opt=ModRedundant

Mol

0 1
O	 -2.081319	 -0.951530	 -0.502732
N	 -1.613558	 0.006676	 0.014756
C	 -0.329345	 -0.171618	 0.743966
O	 -2.068523	 1.100482	 -0.024385
C	 0.835904	 0.041968	 -0.213982
H	 -0.346048	 -1.174374	 1.137184
H	 -0.333613	 0.555559	 1.538590
C	 0.550753	 1.178874	 -1.191889
H	 1.728022	 0.262230	 0.360620
H	 1.017395	 -0.877840	 -0.757812
C	 1.699456	 1.408995	 -2.167596
H	 0.359073	 2.092632	 -0.637143
H	 -0.356302	 0.958551	 -1.746971
H	 2.613030	 1.664394	 -1.642380
H	 1.893784	 0.521093	 -2.758852
H	 1.471470	 2.218709	 -2.849906

9 5 3 2 F
