%nprocshared=1
%mem=2GB
#HF/6-31G* nosymm scf=tight opt=ModRedundant

Mol

0 1
H	 -3.261111	 -0.295142	 1.469456
C	 -3.306842	 -0.277400	 0.373456
C	 -2.660244	 0.921717	 -0.272021
O	 -3.838538	 -1.161155	 -0.216482
C	 -2.011052	 0.585133	 -1.621657
H	 -3.407211	 1.700630	 -0.372246
H	 -1.894087	 1.280172	 0.414396
C	 -3.021002	 0.199877	 -2.705575
H	 -1.438249	 1.446530	 -1.952074
H	 -1.292648	 -0.221822	 -1.485727
C	 -2.361015	 -0.121708	 -4.047892
H	 -3.731190	 1.013837	 -2.835763
H	 -3.604330	 -0.658640	 -2.378135
C	 -3.375060	 -0.490945	 -5.133860
H	 -1.771720	 0.735087	 -4.364697
H	 -1.659586	 -0.944624	 -3.916780
C	 -2.755333	 -0.901404	 -6.474581
H	 -4.052924	 0.346184	 -5.293266
H	 -3.988942	 -1.312904	 -4.771583
C	 -2.011338	 0.220424	 -7.200938
H	 -3.548676	 -1.268170	 -7.121139
H	 -2.080503	 -1.740392	 -6.317660
H	 -2.657833	 1.080017	 -7.357181
H	 -1.141645	 0.556903	 -6.646511
H	 -1.666370	 -0.113971	 -8.174679

6 3 2 4 F
