%nprocshared=4
%mem=2GB
#HF/cc-pVTZ nosymm scf=tight opt=ModRedundant

Mol

0 1
O	 -1.937835	 -2.267998	 0.347376
C	 -1.284058	 -1.902465	 -0.574791
C	 -0.881910	 -0.448129	 -0.720509
C	 -0.804384	 -2.863976	 -1.636006
C	 0.376695	 -0.140025	 0.100361
H	 -1.705608	 0.156964	 -0.363444
H	 -0.709418	 -0.208178	 -1.764317
C	 1.630207	 -0.772146	 -0.501001
H	 0.486632	 0.935267	 0.162725
H	 0.248225	 -0.501310	 1.117842
C	 2.907848	 -0.545876	 0.309149
H	 1.772784	 -0.391628	 -1.509394
H	 1.468529	 -1.842059	 -0.599744
C	 3.373802	 0.906639	 0.372125
H	 3.699140	 -1.146831	 -0.127906
H	 2.764321	 -0.923458	 1.318191
H	 3.519798	 1.311927	 -0.623875
H	 4.316899	 0.983758	 0.900700
H	 2.661122	 1.540651	 0.885346
H	 -1.304447	 -2.639775	 -2.572846
H	 -1.024018	 -3.879549	 -1.344560
H	 0.260169	 -2.747337	 -1.805451

6 3 5 8 F
