%nprocshared=1
%mem=2GB
#HF/6-31G* nosymm scf=tight 

Mol

0 1
O	 0.910565	 0.913212	 0.861198
C	 1.122059	 0.121804	 -0.000188
C	 0.259819	 -0.101441	 -1.218628
O	 2.172624	 -0.688929	 0.000216
C	 -0.965134	 0.806459	 -1.269109
H	 0.890158	 0.038946	 -2.092538
H	 -0.026439	 -1.149656	 -1.226210
C	 -1.820946	 0.559567	 -2.512491
H	 -0.644144	 1.843183	 -1.243139
H	 -1.561845	 0.653211	 -0.375267
C	 -3.051121	 1.464176	 -2.570425
H	 -1.218052	 0.713685	 -3.405152
H	 -2.137697	 -0.481220	 -2.534899
H	 -2.766109	 2.512142	 -2.584115
H	 -3.640110	 1.269214	 -3.461132
H	 -3.692617	 1.308257	 -1.707979
C	 3.452279	 -0.082609	 0.000533
H	 3.583069	 0.529321	 -0.880332
H	 4.163299	 -0.894027	 0.001117
H	 3.582335	 0.529955	 0.881077

9 5 8 12 F
1 2 3 6 F
9 5 3 6 F
