%nprocshared=4
%mem=2GB
#HF/6-31G* nosymm scf=tight opt=ModRedundant

Mol

0 1
O	 -1.276010	 1.052711	 -0.768302
C	 -1.204840	 0.067374	 -0.106123
C	 -2.388195	 -0.672128	 0.458071
O	 -0.067104	 -0.527208	 0.221609
H	 -2.388023	 -1.694060	 0.097175
H	 -3.300579	 -0.174919	 0.164318
H	 -2.315377	 -0.706351	 1.539059
C	 -0.046118	 -1.420791	 1.343660
C	 1.386466	 -1.424522	 1.846925
C	 -0.529923	 -2.796892	 0.913631
H	 -0.706683	 -1.020757	 2.098732
H	 1.696403	 -0.424245	 2.127338
H	 1.475477	 -2.067419	 2.716461
H	 2.061365	 -1.789210	 1.080004
H	 -0.494608	 -3.483979	 1.753083
H	 -1.551307	 -2.750895	 0.557773
H	 0.100802	 -3.190532	 0.122909

8 4 2 1 F
