%nprocshared=4
%mem=2GB
#HF/cc-pVTZ nosymm scf=tight opt=ModRedundant

Mol

0 1
H	 -2.202844	 0.232365	 2.556094
C	 -1.809542	 -0.710089	 2.930231
O	 -0.613226	 -1.043801	 2.309743
H	 -1.616697	 -0.610610	 3.988438
H	 -2.564707	 -1.480217	 2.783558
C	 -0.709081	 -1.215920	 0.933944
C	 0.659923	 -1.470497	 0.354837
H	 -1.353023	 -2.064650	 0.703800
H	 -1.137368	 -0.332980	 0.464457
O	 1.401606	 -0.295166	 0.366636
H	 1.155912	 -2.244517	 0.936489
H	 0.548888	 -1.836391	 -0.665832
C	 2.714315	 -0.441627	 -0.061017
H	 2.765292	 -0.641548	 -1.128869
H	 3.305661	 0.447341	 0.150952
H	 3.143725	 -1.278506	 0.470147

7 10 13 14 F
