%nprocshared=1
%mem=2GB
#HF/6-31G* nosymm scf=tight opt=ModRedundant

Mol

0 1
H	 -2.586843	 0.503216	 -3.716446
C	 -1.812707	 0.467647	 -2.970636
C	 -1.642107	 1.533500	 -2.100003
C	 -0.988952	 -0.643519	 -2.883051
H	 -2.281651	 2.394655	 -2.169005
C	 -0.646506	 1.487034	 -1.141305
H	 -1.122691	 -1.468791	 -3.558806
C	 0.008320	 -0.692231	 -1.924172
H	 -0.499988	 2.302536	 -0.459278
C	 0.181868	 0.374379	 -1.050109
H	 0.648070	 -1.550106	 -1.852808
C	 1.239129	 0.373821	 0.000060
O	 1.970282	 -0.730723	 0.000018
O	 1.417193	 1.268790	 0.765687
C	 3.377318	 -0.566646	 -0.000065
H	 3.695437	 -0.028981	 -0.881264
H	 3.789299	 -1.563704	 0.000236
H	 3.695516	 -0.028316	 0.880770

10 12 13 15 F
