%nprocshared=4
%mem=2GB
#HF/cc-pVTZ nosymm scf=tight opt=ModRedundant

Mol

0 1
H	 -2.644180	 -0.653737	 1.272255
C	 -2.092774	 -0.380414	 0.391915
O	 -0.808934	 -0.154049	 0.752536
F	 -2.163230	 -1.351640	 -0.507133
F	 -2.627232	 0.691260	 -0.169301
C	 -0.016200	 0.607501	 -0.078677
C	 1.337869	 -0.090049	 -0.184508
Cl	 0.192643	 2.248650	 0.560504
H	 -0.424206	 0.698412	 -1.070096
F	 2.137210	 0.578862	 -0.976110
F	 1.164108	 -1.283760	 -0.700429
F	 1.916425	 -0.226451	 0.976922

6 3 2 4 F
