%nprocshared=1
%mem=2GB
#HF/6-31G* nosymm scf=tight 

Mol

0 1
O	 -2.042549	 -1.228399	 -0.269030
C	 -1.653912	 -0.146171	 0.050137
C	 -0.332303	 0.024011	 0.778412
C	 -2.438579	 1.106236	 -0.272369
C	 -0.030082	 -1.197630	 1.660528
H	 0.476529	 0.177378	 0.069432
H	 -0.410614	 0.909434	 1.399554
C	 1.279749	 -1.053821	 2.436861
H	 0.014913	 -2.094146	 1.044641
H	 -0.854743	 -1.337003	 2.353096
C	 1.578313	 -2.263376	 3.321758
H	 2.099980	 -0.905338	 1.737862
H	 1.234690	 -0.157915	 3.051588
H	 1.663135	 -3.170966	 2.730878
H	 0.790335	 -2.417560	 4.053032
H	 2.510501	 -2.132397	 3.862032
H	 -3.277823	 0.863061	 -0.908988
H	 -1.806773	 1.843019	 -0.759671
H	 -2.802853	 1.554979	 0.648059

11 8 5 9 F
9 5 3 2 F
