%nprocshared=4
%mem=2GB
#HF/cc-pVTZ nosymm scf=tight opt=ModRedundant

Mol

0 1
H	 -1.835082	 1.385983	 0.000069
C	 -1.300516	 0.441153	 -0.000028
O	 -0.006604	 0.654344	 -0.000106
O	 -1.828920	 -0.612308	 0.000113
C	 0.852093	 -0.482521	 -0.000161
C	 2.199282	 -0.042829	 0.521812
H	 0.920808	 -0.868235	 -1.007365
H	 0.414557	 -1.250727	 0.621437
H	 2.623508	 0.728906	 -0.107814
H	 2.878195	 -0.887086	 0.534579
H	 2.114709	 0.344519	 1.529174

7 5 3 2 F
