%nprocshared=4
%mem=2GB
#HF/cc-pVTZ nosymm scf=tight opt=ModRedundant

Mol

0 1
H	 -3.170410	 0.260073	 -1.572277
O	 -2.383187	 -0.263081	 -1.589767
C	 -1.457835	 0.343820	 -0.851979
C	 -0.166800	 -0.428708	 -0.830522
O	 -1.666139	 1.368182	 -0.299474
C	 0.926581	 0.227233	 0.000178
H	 0.144946	 -0.558001	 -1.861941
H	 -0.396738	 -1.424300	 -0.464950
C	 2.220156	 -0.582071	 -0.000088
H	 1.116432	 1.224090	 -0.381487
H	 0.574088	 0.356734	 1.017233
C	 3.466689	 0.296012	 -0.000457
H	 2.239073	 -1.234095	 -0.869382
H	 2.239505	 -1.233985	 0.869270
H	 3.493549	 0.935857	 -0.875887
H	 4.368821	 -0.304526	 -0.001199
H	 3.494559	 0.935166	 0.875458

10 6 9 13 F
