%nprocshared=4
%mem=2GB
#HF/6-31G* nosymm scf=tight opt=ModRedundant

Mol

0 1
O	 3.198704	 -3.248277	 0.133008
C	 2.686331	 -2.196386	 0.342912
C	 1.231583	 -1.977830	 0.681628
O	 3.347903	 -1.046386	 0.304773
C	 0.429925	 -3.275843	 0.749625
H	 1.201553	 -1.431582	 1.618592
H	 0.823055	 -1.304554	 -0.067707
C	 -1.068853	 -3.063750	 0.988737
H	 0.840571	 -3.910539	 1.529143
H	 0.568196	 -3.816678	 -0.180322
C	 -1.427235	 -2.474819	 2.356156
H	 -1.566057	 -4.025231	 0.883533
H	 -1.474701	 -2.427178	 0.203835
C	 -2.936914	 -2.385327	 2.588233
H	 -0.979036	 -3.086540	 3.137650
H	 -0.996491	 -1.481610	 2.460887
C	 -3.306864	 -1.793407	 3.949445
H	 -3.374203	 -3.378262	 2.498276
H	 -3.387154	 -1.782611	 1.801013
C	 -4.816208	 -1.711058	 4.174837
H	 -2.856919	 -2.393905	 4.737222
H	 -2.874301	 -0.799143	 4.039499
H	 -5.046559	 -1.287630	 5.147593
H	 -5.274165	 -2.694954	 4.125663
H	 -5.291655	 -1.088397	 3.422164
C	 4.728119	 -1.109107	 -0.004993
H	 4.882018	 -1.033965	 -1.071845
H	 5.068212	 -2.067527	 0.355250
H	 5.265056	 -0.311663	 0.488280

2 4 26 27 F
