%nprocshared=4
%mem=2GB
#HF/cc-pVTZ nosymm scf=tight opt=ModRedundant

Mol

0 1
H	 -1.740598	 2.279597	 0.834241
C	 -0.722514	 1.914144	 0.864559
C	 -0.600949	 0.658697	 -0.000002
H	 -0.465003	 1.701211	 1.893361
H	 -0.066678	 2.695713	 0.505232
C	 0.763408	 0.112229	 -0.000006
H	 -1.266302	 -0.117782	 0.354002
H	 -0.870221	 0.871117	 -1.026308
N	 1.806008	 -0.317179	 0.000007

7 3 6 9 F
