%nprocshared=1
%mem=2GB
#HF/6-31G* nosymm scf=tight 

Mol

0 1
O	 3.225979	 0.970355	 -0.599647
C	 2.701189	 0.057885	 -0.047330
C	 1.245376	 -0.013843	 0.345420
O	 3.347903	 -1.046386	 0.304773
C	 0.455112	 1.231400	 -0.050772
H	 0.838542	 -0.913825	 -0.103701
H	 1.208210	 -0.175333	 1.419774
C	 -0.998893	 1.219485	 0.433193
H	 0.482531	 1.345121	 -1.130325
H	 0.957290	 2.103070	 0.354729
C	 -1.883438	 0.145884	 -0.207175
H	 -1.431207	 2.195402	 0.224832
H	 -1.019646	 1.105716	 1.516076
C	 -1.141808	 -0.690764	 -1.251688
H	 -2.269385	 -0.510606	 0.571211
H	 -2.750204	 0.605580	 -0.676609
C	 -2.017367	 -1.763412	 -1.902037
H	 -0.279632	 -1.165419	 -0.786297
H	 -0.746413	 -0.033687	 -2.024742
C	 -1.268213	 -2.596958	 -2.941109
H	 -2.414114	 -2.420290	 -1.130841
H	 -2.877435	 -1.290486	 -2.371510
H	 -1.914950	 -3.348066	 -3.384025
H	 -0.421649	 -3.111138	 -2.494854
H	 -0.888060	 -1.972464	 -3.744704
C	 4.728119	 -1.109107	 -0.004993
H	 4.882018	 -1.033965	 -1.071845
H	 5.068212	 -2.067527	 0.355250
H	 5.265056	 -0.311663	 0.488280

21 17 14 11 F
17 14 11 15 F
6 3 5 9 F
11 8 5 9 F
2 4 26 27 F
1 2 4 26 F
6 3 2 1 F
