%nprocshared=4
%mem=2GB
#HF/cc-pVTZ nosymm scf=tight opt=ModRedundant

Mol

0 1
O	 -2.081319	 -0.951530	 -0.502732
N	 -1.613558	 0.006676	 0.014756
C	 -0.329345	 -0.171618	 0.743966
O	 -2.068523	 1.100482	 -0.024385
C	 0.835974	 0.063375	 -0.208872
H	 -0.339202	 -1.179591	 1.123850
H	 -0.340508	 0.544919	 1.548131
C	 2.177098	 -0.108067	 0.499761
H	 0.761318	 -0.634231	 -1.034905
H	 0.758800	 1.063629	 -0.619083
C	 3.361358	 0.129002	 -0.430727
H	 2.239681	 -1.108874	 0.916782
H	 2.232853	 0.579905	 1.338208
H	 3.350784	 -0.567308	 -1.261834
H	 3.342595	 1.133318	 -0.839030
H	 4.299123	 0.002496	 0.096296

5 3 2 1 F
