%nprocshared=1
%mem=2GB
#HF/6-31G* nosymm scf=tight 

Mol

0 1
H	 3.893188	 0.355400	 -0.101367
N	 3.092854	 -0.246221	 -0.068770
C	 1.865559	 0.531981	 0.018834
H	 3.199514	 -0.826043	 0.741946
C	 0.645745	 -0.382037	 -0.029944
H	 1.841966	 1.207024	 -0.831236
H	 1.815756	 1.155410	 0.915079
C	 -0.679275	 0.379305	 0.025956
H	 0.698998	 -0.976915	 -0.937203
H	 0.693479	 -1.083846	 0.802235
C	 -1.392228	 0.250032	 1.373309
H	 -1.337258	 0.016664	 -0.762333
H	 -0.503418	 1.432984	 -0.185425
C	 -2.717737	 1.009003	 1.423295
H	 -1.570154	 -0.801782	 1.586012
H	 -0.738091	 0.614101	 2.162749
H	 -3.407111	 0.644230	 0.666974
H	 -3.198966	 0.897744	 2.390065
H	 -2.568637	 2.070879	 1.248424

6 3 5 9 F
12 8 11 15 F
1 2 3 6 F
