%nprocshared=1
%mem=2GB
#HF/6-31G* nosymm scf=tight 

Mol

0 1
H	 -3.420663	 1.227371	 -1.044276
O	 -3.452007	 0.283848	 -0.965577
C	 -3.181085	 -0.079926	 0.364119
C	 -1.765924	 0.277073	 0.805136
H	 -3.327791	 -1.152017	 0.410903
H	 -3.905698	 0.375695	 1.036898
C	 -0.677594	 -0.417312	 -0.014550
H	 -1.637766	 1.358238	 0.744969
H	 -1.659588	 0.017670	 1.857098
C	 0.738335	 -0.034840	 0.421385
H	 -0.814977	 -0.178223	 -1.064632
H	 -0.802730	 -1.495410	 0.071702
C	 1.393079	 0.983200	 -0.516159
H	 0.701811	 0.361745	 1.433218
H	 1.357576	 -0.929888	 0.466468
C	 2.845651	 1.331449	 -0.171321
H	 0.798859	 1.895596	 -0.527624
H	 1.364100	 0.590740	 -1.530532
C	 3.025045	 2.065135	 1.159065
H	 3.249314	 1.951692	 -0.967967
H	 3.441893	 0.421142	 -0.164941
H	 2.429970	 2.974131	 1.186445
H	 4.063180	 2.346514	 1.307182
H	 2.731247	 1.451767	 2.004420

20 16 13 17 F
17 13 10 7 F
11 7 4 3 F
1 2 3 5 F
7 4 3 2 F
