%nprocshared=1
%mem=2GB
#HF/6-31G* nosymm scf=tight opt=ModRedundant

Mol

0 1
O	 3.225979	 0.970355	 -0.599647
C	 2.701189	 0.057885	 -0.047330
C	 1.245376	 -0.013843	 0.345420
O	 3.347903	 -1.046386	 0.304773
C	 0.949932	 0.666649	 1.680245
H	 0.674437	 0.421234	 -0.468170
H	 0.969565	 -1.064976	 0.372710
C	 -0.502569	 0.511911	 2.143701
H	 1.203197	 1.720200	 1.609482
H	 1.609509	 0.250364	 2.433960
C	 -1.538930	 1.219351	 1.265866
H	 -0.577194	 0.905356	 3.154817
H	 -0.750201	 -0.546328	 2.213121
C	 -2.958272	 1.127799	 1.829857
H	 -1.261578	 2.266924	 1.158688
H	 -1.531608	 0.797302	 0.263472
C	 -4.003123	 1.826792	 0.958175
H	 -2.977117	 1.560591	 2.828642
H	 -3.232212	 0.080492	 1.947346
C	 -5.417234	 1.734019	 1.530350
H	 -3.730375	 2.873228	 0.838915
H	 -3.988814	 1.392604	 -0.039350
H	 -6.134767	 2.238403	 0.890545
H	 -5.472810	 2.191312	 2.514215
H	 -5.732901	 0.699247	 1.629717
C	 4.728119	 -1.109107	 -0.004993
H	 4.882018	 -1.033965	 -1.071845
H	 5.068212	 -2.067527	 0.355250
H	 5.265056	 -0.311663	 0.488280

6 3 2 1 F
