%nprocshared=4
%mem=2GB
#HF/6-31G* nosymm scf=tight opt=ModRedundant

Mol

0 1
H	 3.729471	 -0.928294	 -0.070608
O	 2.826016	 -1.159218	 0.122261
C	 2.077727	 -0.067559	 -0.035091
C	 0.624473	 -0.343591	 0.253101
O	 2.542965	 0.974826	 -0.363729
C	 -0.265902	 0.883932	 0.072916
H	 0.324016	 -1.163849	 -0.390541
H	 0.565024	 -0.726111	 1.268924
C	 -1.728698	 0.646073	 0.462102
H	 -0.209144	 1.219470	 -0.958188
H	 0.135059	 1.692851	 0.673903
C	 -2.746148	 0.924118	 -0.648053
H	 -1.959702	 1.284789	 1.311479
H	 -1.849449	 -0.377711	 0.813445
C	 -4.190695	 0.770688	 -0.172427
H	 -2.596093	 1.933134	 -1.026753
H	 -2.578773	 0.253991	 -1.487278
H	 -4.892529	 0.970816	 -0.975975
H	 -4.411234	 1.458311	 0.638971
H	 -4.379517	 -0.236490	 0.188373

12 9 6 10 F
