%nprocshared=4
%mem=2GB
#HF/cc-pVTZ nosymm scf=tight opt=ModRedundant

Mol

0 1
O	 -2.071633	 -1.227563	 -0.223463
C	 -1.652164	 -0.152425	 0.058082
C	 -0.327811	 0.006324	 0.778296
C	 -2.402515	 1.108629	 -0.298924
C	 -0.524330	 0.016566	 2.299052
H	 0.349242	 -0.794618	 0.500415
H	 0.106920	 0.945676	 0.461333
C	 0.785740	 0.193005	 3.061164
H	 -0.999491	 -0.908745	 2.614827
H	 -1.207348	 0.819145	 2.555409
C	 0.593696	 0.216417	 4.573689
H	 1.467981	 -0.609943	 2.795937
H	 1.261428	 1.116072	 2.743032
H	 0.151230	 -0.708996	 4.927057
H	 -0.059313	 1.029354	 4.872156
H	 1.539840	 0.346829	 5.085749
H	 -3.240910	 0.874416	 -0.936711
H	 -1.747554	 1.818823	 -0.790984
H	 -2.760419	 1.579708	 0.610998

5 3 2 4 F
