%nprocshared=1
%mem=2GB
#HF/6-31G* nosymm scf=tight 

Mol

0 1
O	 -2.439739	 -0.935931	 -0.423848
C	 -1.921153	 0.064240	 -0.045697
C	 -2.624470	 1.379923	 0.150949
O	 -0.632575	 0.154573	 0.251549
H	 -2.168117	 2.136577	 -0.476876
H	 -3.669540	 1.273223	 -0.098610
H	 -2.519365	 1.700893	 1.180846
C	 0.160891	 -1.019931	 0.106212
C	 1.589627	 -0.672828	 0.480843
H	 0.089836	 -1.367806	 -0.916050
H	 -0.238459	 -1.792301	 0.749618
C	 2.289103	 0.246167	 -0.522442
H	 2.141086	 -1.606904	 0.566443
H	 1.592927	 -0.215956	 1.467005
C	 3.733157	 0.553216	 -0.128194
H	 2.273891	 -0.219364	 -1.505879
H	 1.731175	 1.172667	 -0.610042
H	 4.206572	 1.206650	 -0.854097
H	 4.325899	 -0.355029	 -0.064742
H	 3.779065	 1.045625	 0.839021

16 12 9 8 F
2 4 8 10 F
1 2 4 8 F
