%nprocshared=4
%mem=2GB
#HF/cc-pVTZ nosymm scf=tight opt=ModRedundant

Mol

0 1
O	 0.817174	 0.788990	 0.931435
C	 1.121787	 0.124983	 0.000110
C	 0.394626	 0.081548	 -1.319289
O	 2.167739	 -0.685178	 -0.000678
C	 -0.821346	 0.994604	 -1.379839
H	 1.114669	 0.334211	 -2.090768
H	 0.119166	 -0.952372	 -1.499824
C	 -1.532727	 0.926558	 -2.728029
H	 -0.513782	 2.014500	 -1.177957
H	 -1.510512	 0.726375	 -0.586966
C	 -2.751745	 1.839599	 -2.800447
H	 -0.836302	 1.193094	 -3.518718
H	 -1.838354	 -0.097692	 -2.924857
H	 -2.473459	 2.875939	 -2.641888
H	 -3.236195	 1.770864	 -3.767536
H	 -3.482834	 1.575735	 -2.043833
C	 3.449556	 -0.089977	 -0.000570
H	 3.585694	 0.522473	 -0.879546
H	 4.155805	 -0.904274	 -0.001389
H	 3.586173	 0.521118	 0.879272

1 2 4 17 F
