%nprocshared=1
%mem=2GB
#HF/6-31G* nosymm scf=tight opt=ModRedundant

Mol

0 1
O	 0.625848	 1.349995	 -0.000749
C	 0.486307	 0.169203	 0.000779
C	 1.608116	 -0.841643	 0.000302
O	 -0.698257	 -0.426125	 0.001050
C	 2.990107	 -0.200498	 -0.000684
H	 1.468623	 -1.481519	 -0.865924
H	 1.469683	 -1.481289	 0.866878
H	 3.129736	 0.423364	 -0.875135
H	 3.757882	 -0.966877	 -0.001197
H	 3.130964	 0.423383	 0.873533
C	 -1.187950	 -0.917286	 -1.242478
C	 -2.539618	 -1.547309	 -0.980986
H	 -0.482985	 -1.634357	 -1.640494
H	 -1.258269	 -0.096226	 -1.942839
H	 -2.452978	 -2.364180	 -0.273616
H	 -2.951003	 -1.936675	 -1.906623
H	 -3.232612	 -0.817689	 -0.577662

11 4 2 3 F
