%nprocshared=4
%mem=2GB
#HF/6-31G* nosymm scf=tight opt=ModRedundant

Mol

0 1
H	 3.729471	 -0.928294	 -0.070608
O	 2.826016	 -1.159218	 0.122261
C	 2.077727	 -0.067559	 -0.035091
C	 0.624473	 -0.343591	 0.253101
O	 2.542965	 0.974826	 -0.363729
C	 -0.265902	 0.883932	 0.072916
H	 0.324016	 -1.163849	 -0.390541
H	 0.565024	 -0.726111	 1.268924
C	 -1.728698	 0.646073	 0.462102
H	 -0.209144	 1.219470	 -0.958188
H	 0.135059	 1.692851	 0.673903
C	 -2.717815	 1.682958	 -0.077782
H	 -1.791920	 0.639611	 1.547792
H	 -2.034463	 -0.347277	 0.136649
C	 -4.142308	 1.454063	 0.427101
H	 -2.387455	 2.678184	 0.212789
H	 -2.722684	 1.667040	 -1.164568
H	 -4.824575	 2.199258	 0.030227
H	 -4.187236	 1.507652	 1.511046
H	 -4.511039	 0.476391	 0.129726

12 9 6 10 F
