%nprocshared=4
%mem=2GB
#HF/cc-pVTZ nosymm scf=tight opt=ModRedundant

Mol

0 1
H	 3.721907	 -0.933076	 -0.066039
O	 2.824271	 -1.154299	 0.131461
C	 2.076458	 -0.067370	 -0.038225
C	 0.626018	 -0.337582	 0.258241
O	 2.538288	 0.965419	 -0.381593
C	 -0.267326	 0.883135	 0.076490
H	 0.325620	 -1.161483	 -0.378003
H	 0.574537	 -0.713685	 1.275261
C	 -1.726822	 0.642622	 0.463839
H	 -0.210803	 1.217591	 -0.953497
H	 0.129920	 1.693110	 0.675679
C	 -2.580322	 1.903546	 0.588942
H	 -1.740306	 0.120940	 1.416163
H	 -2.186215	 -0.032272	 -0.255134
C	 -3.994912	 1.610962	 1.078641
H	 -2.097423	 2.594066	 1.275254
H	 -2.638237	 2.413350	 -0.367458
H	 -4.577982	 2.520898	 1.160670
H	 -3.980800	 1.137489	 2.054511
H	 -4.514719	 0.945568	 0.397313

12 9 6 10 F
