%nprocshared=4
%mem=2GB
#HF/6-31G* nosymm scf=tight opt=ModRedundant

Mol

0 1
O	 1.214711	 1.306902	 -0.000018
C	 1.122059	 0.121804	 -0.000188
C	 -0.170150	 -0.657997	 -0.000612
O	 2.172624	 -0.688929	 0.000216
C	 -1.412532	 0.227344	 -0.000452
H	 -0.153702	 -1.313099	 -0.867402
H	 -0.153924	 -1.313811	 0.865644
C	 -1.070597	 1.708954	 0.164712
H	 -2.077333	 -0.088163	 0.797670
H	 -1.959884	 0.076909	 -0.925805
C	 -2.309572	 2.603351	 0.164670
H	 -0.521592	 1.853978	 1.092956
H	 -0.402268	 2.019177	 -0.636018
H	 -2.982227	 2.340390	 0.975867
H	 -2.039573	 3.647993	 0.283418
H	 -2.861696	 2.507238	 -0.765685
C	 3.452279	 -0.082609	 0.000533
H	 3.583069	 0.529321	 -0.880332
H	 4.163299	 -0.894027	 0.001117
H	 3.582335	 0.529955	 0.881077

9 5 3 6 F
