%nprocshared=1
%mem=2GB
#HF/6-31G* nosymm scf=tight opt=ModRedundant

Mol

0 1
H	 -2.646374	 -0.642757	 1.268656
C	 -2.083525	 -0.384536	 0.393091
O	 -0.807605	 -0.127164	 0.768327
F	 -2.118945	 -1.383102	 -0.486752
F	 -2.621877	 0.670592	 -0.209486
C	 -0.596735	 0.888141	 1.683411
C	 0.549026	 1.737666	 1.148904
Cl	 -0.193388	 0.228135	 3.276809
H	 -1.460006	 1.519638	 1.800661
F	 0.799466	 2.738217	 1.966410
F	 0.196216	 2.240556	 -0.017314
F	 1.647121	 1.040919	 0.985493

6 3 2 4 F
