%nprocshared=4
%mem=2GB
#HF/cc-pVTZ nosymm scf=tight opt=ModRedundant

Mol

0 1
H	 -1.364257	 0.067629	 1.626399
C	 -0.776238	 -0.484975	 0.925404
C	 -0.771357	 -1.865075	 0.919553
C	 0.000000	 0.179985	 0.000046
H	 -1.368207	 -2.400834	 1.631064
C	 -0.000002	 -2.552036	 -0.000012
N	 0.000000	 1.644631	 0.000076
C	 0.776239	 -0.484937	 -0.925338
H	 -0.000000	 -3.625035	 -0.000032
C	 0.771355	 -1.865038	 -0.919547
O	 1.050559	 2.194174	 -0.000073
O	 -1.050559	 2.194174	 -0.000074
H	 1.364252	 0.067696	 -1.626316
H	 1.368208	 -2.400767	 -1.631076

2 4 7 11 F
