%nprocshared=1
%mem=2GB
#HF/6-31G* nosymm scf=tight 

Mol

0 1
O	 -2.821601	 1.309235	 -0.001213
C	 -2.668563	 0.129746	 -0.000350
C	 -3.801572	 -0.864014	 -0.000442
O	 -1.481751	 -0.454642	 0.000584
H	 -4.417280	 -0.689587	 -0.874708
H	 -3.443784	 -1.883046	 -0.000565
H	 -4.417179	 -0.689832	 0.873954
C	 -0.334255	 0.388708	 0.000906
C	 0.891947	 -0.504646	 0.000751
H	 -0.365390	 1.025305	 -0.873475
H	 -0.365484	 1.024911	 0.875569
C	 2.191998	 0.301789	 0.000897
H	 0.855148	 -1.151283	 -0.871571
H	 0.855132	 -1.151660	 0.872805
C	 1.987374	 1.762089	 0.408302
H	 2.907490	 -0.161631	 0.677950
H	 2.642148	 0.266406	 -0.989656
C	 3.286103	 2.567177	 0.409729
H	 1.537935	 1.799297	 1.398098
H	 1.274400	 2.227369	 -0.268642
H	 4.008130	 2.145693	 1.103301
H	 3.108871	 3.597277	 0.702505
H	 3.742429	 2.577272	 -0.576007

13 9 8 10 F
2 4 8 10 F
19 15 12 16 F
1 2 4 8 F
