%nprocshared=1
%mem=2GB
#HF/6-31G* nosymm scf=tight opt=ModRedundant

Mol

0 1
H	 -3.135461	 -1.215070	 0.001379
O	 -2.310168	 -0.871793	 -0.309793
C	 -2.026376	 0.340750	 0.341611
C	 -0.673256	 0.843270	 -0.132153
H	 -2.792215	 1.080697	 0.115987
H	 -2.013526	 0.200402	 1.421792
C	 0.486613	 -0.083066	 0.235839
H	 -0.715586	 0.970948	 -1.210718
H	 -0.508072	 1.829858	 0.297090
C	 1.740724	 0.170346	 -0.602495
H	 0.170040	 -1.114073	 0.116174
H	 0.728134	 0.046530	 1.290217
C	 2.901689	 -0.751418	 -0.230764
H	 1.501107	 0.040444	 -1.655789
H	 2.052122	 1.206684	 -0.486406
H	 2.632592	 -1.794578	 -0.369672
H	 3.776014	 -0.550728	 -0.842502
H	 3.188570	 -0.620890	 0.809030

10 7 4 8 F
