%nprocshared=4
%mem=2GB
#HF/cc-pVTZ nosymm scf=tight opt=ModRedundant

Mol

0 1
H	 -3.436473	 1.252944	 -1.023892
O	 -3.458596	 0.315260	 -0.960865
C	 -3.176635	 -0.080824	 0.355601
C	 -1.763371	 0.265266	 0.799691
H	 -3.321825	 -1.153438	 0.379502
H	 -3.895468	 0.357385	 1.043382
C	 -1.443608	 -0.160101	 2.229774
H	 -1.054560	 -0.194222	 0.112434
H	 -1.631184	 1.339731	 0.697515
C	 -0.011912	 0.164897	 2.647618
H	 -1.620318	 -1.224919	 2.333930
H	 -2.137107	 0.331309	 2.908067
C	 0.300082	 -0.258817	 4.081554
H	 0.674285	 -0.320109	 1.960018
H	 0.159891	 1.234514	 2.546325
C	 1.698254	 0.118029	 4.574455
H	 0.165960	 -1.334074	 4.174742
H	 -0.431862	 0.194956	 4.744100
C	 2.841562	 -0.599640	 3.861055
H	 1.758624	 -0.102628	 5.635795
H	 1.833692	 1.192449	 4.481185
H	 2.729502	 -1.676866	 3.932502
H	 3.795692	 -0.337878	 4.304178
H	 2.889998	 -0.341386	 2.810072

7 4 3 2 F
