%nprocshared=1
%mem=2GB
#HF/6-31G* nosymm scf=tight 

Mol

0 1
H	 3.089270	 -1.380733	 0.000000
O	 2.178328	 -1.639175	 0.000000
C	 1.368216	 -0.558384	 0.000000
C	 1.803740	 0.698088	 -0.401128
C	 0.061378	 -0.736336	 0.419448
H	 2.821152	 0.834419	 -0.727198
C	 0.933057	 1.774767	 -0.382590
H	 -0.276312	 -1.706327	 0.729545
C	 -0.803854	 0.346802	 0.434989
H	 1.281568	 2.742305	 -0.695302
C	 -0.374686	 1.606040	 0.035108
C	 -2.209167	 0.162613	 0.884478
H	 -1.052684	 2.440961	 0.050305
O	 -2.671680	 -0.872091	 1.245055
H	 -2.821796	 1.069011	 0.865034

11 9 12 14 F
