%nprocshared=4
%mem=2GB
#HF/6-31G* nosymm scf=tight opt=ModRedundant

Mol

0 1
O	 -0.988096	 -1.408613	 0.050699
C	 -0.676749	 -0.249230	 -0.009274
C	 -1.746085	 0.827156	 -0.009539
N	 0.623947	 0.147590	 -0.102813
H	 -1.701500	 1.431508	 -0.908902
H	 -2.703425	 0.330732	 0.036390
H	 -1.647323	 1.487769	 0.845106
C	 1.160236	 1.017967	 0.925153
C	 1.413555	 0.056937	 -1.311344
H	 2.184446	 0.734058	 1.140578
H	 0.568130	 0.924474	 1.818803
H	 1.152965	 2.057830	 0.605694
H	 2.451604	 -0.103199	 -1.045167
H	 1.103220	 -0.772179	 -1.927130
H	 1.355996	 0.968376	 -1.903609

8 4 2 3 F
