%nprocshared=4
%mem=2GB
#HF/cc-pVTZ nosymm scf=tight opt=ModRedundant

Mol

0 1
H	 -2.842260	 2.178746	 0.887048
C	 -2.196523	 1.825681	 1.687831
O	 -0.885058	 1.679542	 1.256273
H	 -2.202847	 2.553618	 2.485926
H	 -2.599811	 0.888284	 2.066686
C	 -0.718530	 0.758693	 0.228682
C	 0.718529	 0.758687	 -0.228709
H	 -0.979341	 -0.242055	 0.572851
H	 -1.361995	 1.001812	 -0.614097
O	 1.401606	 -0.295166	 0.366636
H	 0.748705	 0.673477	 -1.312803
H	 1.176496	 1.708671	 0.046552
C	 2.714315	 -0.441627	 -0.061017
H	 2.765292	 -0.641548	 -1.128869
H	 3.305661	 0.447341	 0.150952
H	 3.143725	 -1.278506	 0.470147

3 6 7 11 F
