%nprocshared=4
%mem=2GB
#HF/6-31G* nosymm scf=tight opt=ModRedundant

Mol

0 1
O	 -2.439739	 -0.935931	 -0.423848
C	 -1.921153	 0.064240	 -0.045697
C	 -2.624470	 1.379923	 0.150949
O	 -0.632575	 0.154573	 0.251549
H	 -2.168117	 2.136577	 -0.476876
H	 -3.669540	 1.273223	 -0.098610
H	 -2.519365	 1.700893	 1.180846
C	 0.160891	 -1.019931	 0.106212
C	 1.589627	 -0.672828	 0.480843
H	 0.089836	 -1.367806	 -0.916050
H	 -0.238459	 -1.792301	 0.749618
C	 2.380193	 -1.844138	 1.066878
H	 1.549697	 0.139008	 1.204210
H	 2.098504	 -0.284576	 -0.397544
C	 3.804756	 -1.452827	 1.457385
H	 1.857837	 -2.227279	 1.941205
H	 2.410335	 -2.653715	 0.345051
H	 4.344423	 -2.299810	 1.868981
H	 3.805938	 -0.664853	 2.205297
H	 4.361881	 -1.092424	 0.597269

12 9 8 10 F
