%nprocshared=4
%mem=2GB
#HF/cc-pVTZ nosymm scf=tight opt=ModRedundant

Mol

0 1
O	 -2.071633	 -1.227563	 -0.223463
C	 -1.652164	 -0.152425	 0.058082
C	 -0.327811	 0.006324	 0.778296
C	 -2.402515	 1.108629	 -0.298924
C	 -0.222833	 1.384105	 1.443218
H	 -0.210570	 -0.772147	 1.524863
H	 0.459774	 -0.104138	 0.043893
C	 -0.127377	 2.521297	 0.430345
H	 0.646449	 1.412607	 2.095314
H	 -1.090799	 1.530795	 2.076845
C	 -0.035471	 3.894458	 1.086960
H	 0.739992	 2.365951	 -0.205314
H	 -0.994596	 2.490421	 -0.222738
H	 0.842394	 3.968255	 1.720161
H	 -0.905122	 4.091331	 1.704469
H	 0.026885	 4.679965	 0.342989
H	 -3.240910	 0.874416	 -0.936711
H	 -1.747554	 1.818823	 -0.790984
H	 -2.760419	 1.579708	 0.610998

5 3 2 4 F
