%nprocshared=1
%mem=2GB
#HF/6-31G* nosymm scf=tight opt=ModRedundant

Mol

0 1
H	 -3.420663	 1.227371	 -1.044276
O	 -3.452007	 0.283848	 -0.965577
C	 -3.181085	 -0.079926	 0.364119
C	 -1.765924	 0.277073	 0.805136
H	 -3.327791	 -1.152017	 0.410903
H	 -3.905698	 0.375695	 1.036898
C	 -0.677594	 -0.417312	 -0.014550
H	 -1.637766	 1.358238	 0.744969
H	 -1.659588	 0.017670	 1.857098
C	 0.738335	 -0.034840	 0.421385
H	 -0.814977	 -0.178223	 -1.064632
H	 -0.802730	 -1.495410	 0.071702
C	 1.822265	 -0.738362	 -0.399735
H	 0.853533	 1.043532	 0.342250
H	 0.871597	 -0.279636	 1.474438
C	 1.984984	 -0.213520	 -1.830895
H	 1.612942	 -1.806481	 -0.431383
H	 2.773926	 -0.631933	 0.116821
C	 0.780576	 -0.463176	 -2.740553
H	 2.858957	 -0.685488	 -2.273284
H	 2.199733	 0.852861	 -1.800603
H	 0.534509	 -1.521010	 -2.780272
H	 0.988683	 -0.135146	 -3.754420
H	 -0.101979	 0.069315	 -2.401861

17 13 10 7 F
