%nprocshared=4
%mem=2GB
#HF/cc-pVTZ nosymm scf=tight opt=ModRedundant

Mol

0 1
H	 -2.266619	 1.169943	 0.000098
O	 -1.438073	 1.611259	 0.000041
C	 -0.408657	 0.734701	 0.000005
C	 -0.625707	 -0.483498	 -0.616670
C	 0.815738	 1.030057	 0.587997
H	 -1.584076	 -0.673317	 -1.058743
C	 0.380459	 -1.425407	 -0.654152
C	 1.808485	 0.065065	 0.535347
C	 1.051020	 2.359910	 1.260555
H	 0.204712	 -2.368928	 -1.134632
C	 1.606211	 -1.155692	 -0.076903
H	 2.760463	 0.278015	 0.985190
H	 0.365317	 2.520128	 2.087877
H	 2.053738	 2.413740	 1.659429
H	 0.934235	 3.188381	 0.567502
H	 2.393544	 -1.883590	 -0.102203

4 3 2 1 F
