%nprocshared=4
%mem=2GB
#HF/cc-pVTZ nosymm scf=tight opt=ModRedundant

Mol

0 1
O	 -2.071633	 -1.227563	 -0.223463
C	 -1.652164	 -0.152425	 0.058082
C	 -0.327811	 0.006324	 0.778296
C	 -2.402515	 1.108629	 -0.298924
C	 0.773555	 -0.813491	 0.095419
H	 -0.041015	 1.052176	 0.810963
H	 -0.463602	 -0.341906	 1.794236
C	 2.120587	 -0.694468	 0.802220
H	 0.882848	 -0.494062	 -0.937884
H	 0.465825	 -1.853155	 0.067750
C	 3.216075	 -1.518127	 0.133899
H	 2.420819	 0.349311	 0.832390
H	 2.010037	 -1.010858	 1.835281
H	 3.374500	 -1.201162	 -0.891513
H	 2.958024	 -2.571459	 0.117466
H	 4.157794	 -1.416234	 0.660383
H	 -3.240910	 0.874416	 -0.936711
H	 -1.747554	 1.818823	 -0.790984
H	 -2.760419	 1.579708	 0.610998

5 3 2 4 F
