%nprocshared=4
%mem=2GB
#HF/cc-pVTZ nosymm scf=tight opt=ModRedundant

Mol

0 1
O	 0.233673	 0.912963	 0.887974
C	 0.485107	 0.171416	 -0.000134
C	 1.606966	 -0.836201	 0.000174
O	 -0.199227	 0.129848	 -1.129977
C	 2.988788	 -0.202529	 -0.000115
H	 1.465110	 -1.474645	 -0.864821
H	 1.465209	 -1.474077	 0.865596
H	 3.131767	 0.419673	 -0.873407
H	 3.750876	 -0.972315	 0.000098
H	 3.131883	 0.420264	 0.872742
C	 -1.291912	 1.025866	 -1.276537
C	 -1.904230	 0.788623	 -2.637151
H	 -0.932777	 2.040226	 -1.174353
H	 -2.004480	 0.846399	 -0.483844
H	 -1.181410	 0.970370	 -3.422563
H	 -2.743646	 1.458404	 -2.782084
H	 -2.259278	 -0.230218	 -2.728119

4 2 3 6 F
