%nprocshared=1
%mem=2GB
#HF/6-31G* nosymm scf=tight opt=ModRedundant

Mol

0 1
H	 1.361832	 3.593289	 2.561384
N	 0.529989	 3.039153	 2.494174
C	 0.556479	 2.211807	 1.296542
H	 -0.241652	 3.678208	 2.462395
C	 -0.664319	 1.299118	 1.247498
H	 1.456236	 1.605315	 1.334791
H	 0.610756	 2.794480	 0.373533
C	 -0.679275	 0.379305	 0.025956
H	 -0.689933	 0.711258	 2.160514
H	 -1.566134	 1.910726	 1.249110
C	 -1.903357	 -0.536963	 -0.023547
H	 0.223190	 -0.230113	 0.022168
H	 -0.645087	 0.979030	 -0.882344
C	 -3.225172	 0.228290	 0.028445
H	 -1.867824	 -1.134999	 -0.931459
H	 -1.860449	 -1.239604	 0.805977
H	 -3.313397	 0.915643	 -0.808262
H	 -4.073500	 -0.448134	 -0.008893
H	 -3.306061	 0.809945	 0.942516

12 8 11 15 F
