%nprocshared=4
%mem=2GB
#HF/cc-pVTZ nosymm scf=tight opt=ModRedundant

Mol

0 1
O	 1.427376	 0.796342	 0.930632
C	 1.704209	 0.119472	 -0.000093
C	 0.976312	 0.105270	 -1.319792
O	 2.715427	 -0.733672	 0.000025
C	 -0.200525	 1.068361	 -1.381721
H	 1.706535	 0.326804	 -2.091248
H	 0.658019	 -0.916400	 -1.499576
C	 -0.913576	 1.027750	 -2.730027
H	 0.150064	 2.074318	 -1.180696
H	 -0.899555	 0.829822	 -0.588156
C	 -2.097511	 1.987019	 -2.811079
H	 -0.206447	 1.265410	 -3.521695
H	 -1.259843	 0.015549	 -2.926969
C	 -2.809903	 1.946832	 -4.158778
H	 -1.752649	 2.998438	 -2.615482
H	 -2.805214	 1.749527	 -2.021830
H	 -2.136059	 2.213789	 -4.966183
H	 -3.643873	 2.638688	 -4.182514
H	 -3.197296	 0.955102	 -4.367666
C	 4.020999	 -0.192556	 0.000019
H	 4.182809	 0.412891	 -0.879449
H	 4.692590	 -1.035653	 0.000152
H	 4.182726	 0.413087	 0.879368

1 2 4 20 F
