%nprocshared=1
%mem=2GB
#HF/6-31G* nosymm scf=tight opt=ModRedundant

Mol

0 1
H	 -3.261111	 -0.295142	 1.469456
C	 -3.306842	 -0.277400	 0.373456
C	 -2.660244	 0.921717	 -0.272021
O	 -3.838538	 -1.161155	 -0.216482
C	 -1.127879	 0.831888	 -0.278547
H	 -3.057659	 1.026227	 -1.274941
H	 -2.965230	 1.796632	 0.300833
C	 -0.585872	 -0.287303	 -1.171261
H	 -0.728947	 1.785029	 -0.612704
H	 -0.769705	 0.694599	 0.740580
C	 0.942470	 -0.357682	 -1.177043
H	 -0.946472	 -0.138525	 -2.186977
H	 -0.987604	 -1.245390	 -0.846882
C	 1.481511	 -1.467659	 -2.083318
H	 1.338037	 0.604742	 -1.491684
H	 1.299805	 -0.518577	 -0.160771
C	 3.005631	 -1.630383	 -2.057853
H	 1.157128	 -1.286278	 -3.106827
H	 1.028880	 -2.410941	 -1.784894
C	 3.781305	 -0.443299	 -2.631247
H	 3.264896	 -2.521509	 -2.624090
H	 3.331099	 -1.815521	 -1.036229
H	 3.464706	 -0.224653	 -3.647725
H	 3.642780	 0.456231	 -2.040798
H	 4.846019	 -0.654897	 -2.655871

6 3 2 4 F
