%nprocshared=4
%mem=2GB
#HF/cc-pVTZ nosymm scf=tight opt=ModRedundant

Mol

0 1
H	 -0.368932	 0.067705	 -2.090439
C	 -0.209919	 -0.484932	 -1.189418
C	 -0.208597	 -1.865032	 -1.181964
C	 0.000000	 0.179985	 0.000046
H	 -0.370006	 -2.400757	 -2.096546
C	 0.000003	 -2.552036	 -0.000011
N	 0.000000	 1.644631	 0.000076
C	 0.209918	 -0.484981	 1.189483
H	 0.000000	 -3.625035	 -0.000032
C	 0.208599	 -1.865081	 1.181972
O	 1.050559	 2.194174	 -0.000073
O	 -1.050559	 2.194174	 -0.000074
H	 0.368940	 0.067620	 2.090525
H	 0.370004	 -2.400843	 2.096533

2 4 7 11 F
