%nprocshared=4
%mem=2GB
#HF/cc-pVTZ nosymm scf=tight opt=ModRedundant

Mol

0 1
H	 -1.088256	 -1.364742	 0.152233
O	 -1.432053	 -0.565244	 -0.200812
C	 -0.727158	 0.534527	 0.310686
C	 0.680222	 0.664433	 -0.252229
H	 -1.306802	 1.408001	 0.044211
H	 -0.690821	 0.490158	 1.397609
C	 0.847874	 1.816273	 -1.238739
H	 1.373678	 0.785103	 0.573476
H	 0.932193	 -0.271407	 -0.743516
H	 0.662622	 2.774979	 -0.766840
H	 1.855905	 1.844743	 -1.634486
H	 0.167091	 1.717156	 -2.078779

8 4 3 2 F
