%nprocshared=1
%mem=2GB
#HF/6-31G* nosymm scf=tight opt=ModRedundant

Mol

0 1
H	 -2.948938	 1.747469	 1.316895
C	 -2.650465	 0.727987	 1.167795
C	 -1.578715	 0.456948	 0.459353
H	 -3.244615	 -0.050522	 1.608046
O	 -1.180634	 -0.819263	 0.215062
H	 -0.966198	 1.222177	 0.016134
C	 0.051604	 -1.018856	 -0.387932
C	 1.043764	 0.054862	 -0.001873
H	 -0.017620	 -1.041351	 -1.469781
H	 0.437898	 -1.966374	 -0.042284
F	 2.212596	 -0.199467	 -0.571921
F	 0.652529	 1.252447	 -0.405055
F	 1.230877	 0.110694	 1.300533

3 5 7 9 F
