%nprocshared=4
%mem=2GB
#HF/6-31G* nosymm scf=tight opt=ModRedundant

Mol

0 1
H	 -3.420663	 1.227371	 -1.044276
O	 -3.452007	 0.283848	 -0.965577
C	 -3.181085	 -0.079926	 0.364119
C	 -1.765924	 0.277073	 0.805136
H	 -3.327791	 -1.152017	 0.410903
H	 -3.905698	 0.375695	 1.036898
C	 -1.289820	 -0.511191	 2.025989
H	 -1.082423	 0.112040	 -0.028262
H	 -1.732549	 1.344362	 1.017276
C	 0.139264	 -0.161649	 2.446370
H	 -1.360029	 -1.573650	 1.813947
H	 -1.967068	 -0.320591	 2.856892
C	 0.606652	 -0.950338	 3.672585
H	 0.808877	 -0.344852	 1.609427
H	 0.203183	 0.904439	 2.660786
C	 2.000442	 -0.571270	 4.186214
H	 0.586017	 -2.014921	 3.444698
H	 -0.110107	 -0.799410	 4.477130
C	 3.143950	 -0.902083	 3.225299
H	 2.174055	 -1.090568	 5.125616
H	 2.020924	 0.491414	 4.419639
H	 3.140880	 -1.956991	 2.963961
H	 4.104979	 -0.677715	 3.677980
H	 3.078335	 -0.332800	 2.304009

7 4 3 2 F
