%nprocshared=4
%mem=2GB
#HF/cc-pVTZ nosymm scf=tight opt=ModRedundant

Mol

0 1
H	 0.300555	 -3.283573	 -1.517521
O	 0.482707	 -2.581961	 -0.910646
C	 -0.532029	 -1.722971	 -0.943290
C	 -0.318151	 -0.570512	 0.000144
O	 -1.470490	 -1.883853	 -1.644272
C	 -1.454884	 0.441630	 -0.000560
H	 -0.165239	 -0.990579	 0.989109
H	 0.623919	 -0.105126	 -0.271552
C	 -2.822577	 -0.232186	 0.000063
H	 -1.359760	 1.084704	 -0.867077
H	 -1.359641	 1.085996	 0.864983
H	 -2.954352	 -0.858985	 -0.875745
H	 -3.615886	 0.505352	 0.000019
H	 -2.953878	 -0.858359	 0.876394

7 4 6 10 F
