%nprocshared=1
%mem=2GB
#HF/6-31G* nosymm scf=tight 

Mol

0 1
O	 0.080435	 -0.162669	 0.496939
C	 1.122059	 0.121804	 -0.000188
C	 1.433802	 1.420087	 -0.703873
O	 2.172624	 -0.688929	 0.000216
C	 0.257495	 2.391035	 -0.733953
H	 2.294621	 1.859818	 -0.207504
H	 1.766327	 1.173209	 -1.708478
C	 0.599943	 3.697134	 -1.452424
H	 -0.058932	 2.602274	 0.282785
H	 -0.588196	 1.914465	 -1.219948
C	 -0.573492	 4.675279	 -1.488302
H	 1.448366	 4.170105	 -0.961962
H	 0.918817	 3.479509	 -2.469788
H	 -0.893688	 4.939512	 -0.484654
H	 -0.304326	 5.592521	 -2.002593
H	 -1.426786	 4.244223	 -2.003782
C	 3.452279	 -0.082609	 0.000533
H	 3.583069	 0.529321	 -0.880332
H	 4.163299	 -0.894027	 0.001117
H	 3.582335	 0.529955	 0.881077

9 5 8 12 F
1 2 3 6 F
9 5 3 6 F
