%nprocshared=1
%mem=2GB
#HF/6-31G* nosymm scf=tight 

Mol

0 1
H	 2.591676	 2.013956	 0.335017
O	 3.341076	 1.666752	 -0.126416
C	 3.569581	 0.339145	 0.272707
C	 2.539767	 -0.640285	 -0.279495
H	 4.553106	 0.084646	 -0.100901
H	 3.608576	 0.269204	 1.359154
C	 1.115811	 -0.397273	 0.226630
H	 2.556196	 -0.582511	 -1.364741
H	 2.852081	 -1.648031	 -0.010655
C	 0.114133	 -1.423372	 -0.310565
H	 0.800578	 0.602084	 -0.060213
H	 1.108690	 -0.427813	 1.316290
C	 -1.311803	 -1.276959	 0.233136
H	 0.092354	 -1.367347	 -1.397411
H	 0.475085	 -2.420186	 -0.066074
C	 -2.036420	 0.002286	 -0.194578
H	 -1.894276	 -2.133295	 -0.100377
H	 -1.289323	 -1.332479	 1.320449
C	 -3.488824	 0.053214	 0.284345
H	 -2.014309	 0.081415	 -1.280561
H	 -1.510745	 0.875036	 0.185259
C	 -4.212533	 1.332043	 -0.135783
H	 -4.026251	 -0.809307	 -0.103878
H	 -3.513495	 -0.035489	 1.368507
H	 -4.233532	 1.433405	 -1.217221
H	 -5.239383	 1.337269	 0.216620
H	 -3.720192	 2.212355	 0.267968

14 10 7 4 F
14 10 13 16 F
8 4 3 2 F
10 13 16 20 F
20 16 19 22 F
4 3 2 1 F
