%nprocshared=4
%mem=2GB
#HF/cc-pVTZ nosymm scf=tight opt=ModRedundant

Mol

0 1
O	 -0.694481	 1.313155	 -0.204815
C	 -0.862519	 0.151932	 -0.046791
C	 -2.171428	 -0.477048	 0.339095
O	 0.085519	 -0.757083	 -0.192238
H	 -2.467997	 -1.191667	 -0.417688
H	 -2.923379	 0.287970	 0.444097
H	 -2.053854	 -1.015120	 1.270901
C	 -0.279566	 -2.065329	 -0.616134
C	 -0.373806	 -2.159194	 -2.124844
H	 -1.212262	 -2.342553	 -0.150256
H	 0.505249	 -2.703960	 -0.239349
H	 -0.587352	 -3.182501	 -2.412407
H	 -1.166227	 -1.527756	 -2.502651
H	 0.561123	 -1.864082	 -2.585722

8 4 2 1 F
