%nprocshared=4
%mem=2GB
#HF/cc-pVTZ nosymm scf=tight opt=ModRedundant

Mol

0 1
H	 -4.340537	 -0.784487	 0.000000
O	 -3.958786	 0.074640	 0.000000
C	 -2.613554	 0.009900	 0.000000
C	 -2.011372	 -0.809204	 -0.940544
C	 -1.833981	 0.721385	 0.891594
H	 -2.625885	 -1.356557	 -1.627304
C	 -0.638794	 -0.912787	 -0.985216
H	 -2.293885	 1.358907	 1.624139
C	 -0.455749	 0.616226	 0.845371
H	 -0.174842	 -1.546921	 -1.713495
C	 0.136400	 -0.199053	 -0.091194
H	 0.144736	 1.169773	 1.538700
Br	 2.028005	 -0.345301	 -0.156919

4 3 2 1 F
