%nprocshared=4
%mem=2GB
#HF/cc-pVTZ nosymm scf=tight opt=ModRedundant

Mol

0 1
O	 -0.694481	 1.313155	 -0.204815
C	 -0.862519	 0.151932	 -0.046791
C	 -2.171428	 -0.477048	 0.339095
O	 0.085519	 -0.757083	 -0.192238
H	 -2.467997	 -1.191667	 -0.417688
H	 -2.923379	 0.287970	 0.444097
H	 -2.053854	 -1.015120	 1.270901
C	 1.392036	 -0.330828	 -0.560749
C	 1.634405	 1.117162	 -0.188622
H	 1.532399	 -0.489203	 -1.618591
H	 2.056818	 -0.984356	 -0.016030
H	 2.658342	 1.385807	 -0.422789
H	 0.976158	 1.773604	 -0.741050
H	 1.476009	 1.271349	 0.871911

10 8 4 2 F
