%nprocshared=4
%mem=2GB
#HF/cc-pVTZ nosymm scf=tight opt=ModRedundant

Mol

0 1
O	 0.570210	 -0.219771	 -0.000100
C	 1.704209	 0.119472	 -0.000093
C	 2.191451	 1.545738	 -0.000066
O	 2.715427	 -0.733672	 0.000025
C	 1.071754	 2.576564	 -0.000456
H	 2.835030	 1.664800	 0.865429
H	 2.835552	 1.664682	 -0.865183
C	 1.600360	 4.007855	 -0.000612
H	 0.439453	 2.417608	 0.865686
H	 0.439815	 2.417318	 -0.866819
C	 0.491638	 5.056284	 -0.001510
H	 2.235308	 4.160192	 0.869379
H	 2.236227	 4.159670	 -0.870016
C	 1.019887	 6.486796	 -0.001170
H	 -0.143519	 4.906196	 0.866941
H	 -0.142211	 4.906102	 -0.870901
H	 1.630279	 6.678778	 0.875071
H	 0.208009	 7.204841	 -0.001618
H	 1.631274	 6.678812	 -0.876710
C	 4.020999	 -0.192556	 0.000019
H	 4.182809	 0.412891	 -0.879449
H	 4.692590	 -1.035653	 0.000152
H	 4.182726	 0.413087	 0.879368

1 2 4 20 F
