%nprocshared=4
%mem=2GB
#HF/6-31G* nosymm scf=tight opt=ModRedundant

Mol

0 1
H	 4.660116	 -2.127027	 0.293068
C	 4.116185	 -1.740836	 -0.563389
C	 2.658725	 -1.450867	 -0.207152
H	 4.621953	 -0.839785	 -0.897527
H	 4.188319	 -2.476195	 -1.360160
C	 1.860427	 -0.910716	 -1.395753
H	 2.624618	 -0.734348	 0.607120
H	 2.189149	 -2.363490	 0.156591
C	 0.392794	 -0.628033	 -1.074177
H	 2.322711	 -0.000397	 -1.760798
H	 1.899323	 -1.633414	 -2.207686
C	 0.169600	 0.576866	 -0.172154
H	 -0.153815	 -0.431096	 -1.995157
H	 -0.082911	 -1.500054	 -0.630939
C	 -1.181045	 0.701995	 0.511084
O	 1.013909	 1.407191	 -0.016888
C	 -2.285934	 -0.139295	 -0.145128
H	 -1.449051	 1.751551	 0.493206
H	 -1.071135	 0.403303	 1.551943
C	 -3.651768	 0.085446	 0.506485
H	 -2.346596	 0.110469	 -1.202272
H	 -2.034737	 -1.195320	 -0.088721
C	 -4.759797	 -0.746382	 -0.137905
H	 -3.908762	 1.140117	 0.445781
H	 -3.588286	 -0.154158	 1.565709
H	 -4.868882	 -0.505166	 -1.191300
H	 -4.548009	 -1.809175	 -0.062213
H	 -5.715422	 -0.564821	 0.343442

16 12 15 17 F
