%nprocshared=1
%mem=2GB
#HF/6-31G* nosymm scf=tight opt=ModRedundant

Mol

0 1
O	 1.846825	 1.296220	 0.000415
C	 1.705091	 0.115954	 0.001797
C	 0.381791	 -0.609817	 0.001258
O	 2.721346	 -0.737485	 -0.000216
C	 -0.823008	 0.326187	 0.001381
H	 0.371250	 -1.265087	 -0.865474
H	 0.370908	 -1.265746	 0.867490
C	 -2.147999	 -0.433271	 0.083143
H	 -0.802076	 0.936072	 -0.896278
H	 -0.740468	 1.015244	 0.836065
C	 -3.367339	 0.490347	 0.083458
H	 -2.223151	 -1.125114	 -0.754534
H	 -2.161860	 -1.044760	 0.984125
C	 -4.690885	 -0.268994	 0.166397
H	 -3.356348	 1.100093	 -0.817225
H	 -3.294161	 1.181480	 0.920188
H	 -4.809394	 -0.944149	 -0.676417
H	 -5.535749	 0.412661	 0.164929
H	 -4.746508	 -0.862518	 1.074662
C	 4.024888	 -0.184556	 -0.001949
H	 4.179030	 0.422472	 -0.882452
H	 4.701782	 -1.024608	 -0.003642
H	 4.181981	 0.421185	 0.878906

9 5 3 6 F
