%nprocshared=4
%mem=2GB
#HF/cc-pVTZ nosymm scf=tight opt=ModRedundant

Mol

0 1
H	 4.142191	 -0.198756	 1.898861
C	 3.480409	 -0.616016	 1.149162
C	 2.176920	 0.170841	 1.069004
H	 4.006124	 -0.600454	 0.200257
H	 3.300143	 -1.653741	 1.409252
C	 1.215950	 -0.382441	 0.027187
H	 2.382144	 1.209507	 0.834867
H	 1.691715	 0.163394	 2.042193
N	 0.000002	 0.398953	 -0.040851
H	 1.690088	 -0.352620	 -0.949272
H	 1.017470	 -1.436908	 0.241169
C	 -1.215959	 -0.382435	 0.027143
H	 -0.000012	 1.086078	 0.683841
C	 -2.451944	 0.502410	 -0.038737
H	 -1.221867	 -1.069392	 -0.813828
H	 -1.259993	 -0.999709	 0.929424
C	 -3.752217	 -0.292550	 0.005776
H	 -2.407325	 1.093801	 -0.946480
H	 -2.431979	 1.206234	 0.790023
H	 -3.817783	 -0.982946	 -0.828547
H	 -4.612613	 0.364348	 -0.042306
H	 -3.830160	 -0.871666	 0.919868

10 6 9 12 F
