%nprocshared=1
%mem=2GB
#HF/6-31G* nosymm scf=tight 

Mol

0 1
H	 -1.772485	 -2.217704	 -4.759210
O	 -2.118120	 -3.085001	 -4.912192
C	 -1.433830	 -4.015407	 -4.112100
C	 -1.802904	 -3.924837	 -2.635514
H	 -1.704387	 -4.990115	 -4.497349
H	 -0.357121	 -3.906170	 -4.236781
C	 -1.418133	 -2.597181	 -1.978134
H	 -2.873613	 -4.083917	 -2.537309
H	 -1.311238	 -4.743317	 -2.112329
C	 -1.752473	 -2.558211	 -0.484308
H	 -1.931206	 -1.785316	 -2.486068
H	 -0.349901	 -2.424200	 -2.109661
C	 -1.309753	 -1.282496	 0.241564
H	 -2.824719	 -2.692781	 -0.353821
H	 -1.279480	 -3.410756	 -0.001456
C	 -2.037799	 -0.007733	 -0.193645
H	 -1.467210	 -1.424432	 1.308746
H	 -0.237137	 -1.148070	 0.110178
C	 -3.489788	 0.042957	 0.286558
H	 -2.017067	 0.064384	 -1.280144
H	 -1.513726	 0.868678	 0.179924
C	 -4.216917	 1.317354	 -0.141063
H	 -4.025645	 -0.823308	 -0.095450
H	 -3.513059	 -0.038752	 1.371301
H	 -4.239342	 1.411634	 -1.223113
H	 -5.243387	 1.322503	 0.212445
H	 -3.726170	 2.201406	 0.256408

14 10 7 4 F
14 10 13 16 F
10 7 4 8 F
8 4 3 2 F
20 16 19 22 F
4 3 2 1 F
