%nprocshared=1
%mem=2GB
#HF/6-31G* nosymm scf=tight 

Mol

0 1
H	 0.542689	 -2.919892	 2.108812
O	 0.913557	 -2.353043	 1.439562
C	 0.110885	 -1.298210	 1.300062
C	 0.624473	 -0.343591	 0.253101
O	 -0.878684	 -1.168271	 1.944176
C	 -0.265902	 0.883932	 0.072916
H	 1.636593	 -0.075497	 0.537902
H	 0.715293	 -0.902443	 -0.674901
C	 -1.728698	 0.646073	 0.462102
H	 -0.209144	 1.219470	 -0.958188
H	 0.135059	 1.692851	 0.673903
C	 -2.482460	 -0.343073	 -0.431425
H	 -2.245265	 1.602650	 0.432430
H	 -1.779332	 0.308348	 1.496285
C	 -3.960546	 -0.461025	 -0.060175
H	 -2.395034	 -0.026811	 -1.468912
H	 -2.024850	 -1.327147	 -0.371646
H	 -4.472726	 -1.168004	 -0.705284
H	 -4.465146	 0.496508	 -0.151489
H	 -4.081218	 -0.800940	 0.964585

16 12 9 6 F
12 9 6 10 F
5 3 4 7 F
1 2 3 5 F
