%nprocshared=1
%mem=2GB
#HF/6-31G* nosymm scf=tight 

Mol

0 1
O	 0.605153	 -0.181537	 -0.336958
C	 1.705091	 0.115954	 0.001797
C	 2.136351	 1.478326	 0.487415
O	 2.721346	 -0.737485	 -0.000216
C	 1.003455	 2.499893	 0.511726
H	 2.570733	 1.348486	 1.474921
H	 2.950424	 1.808286	 -0.152219
C	 1.467851	 3.869891	 1.008217
H	 0.202311	 2.130400	 1.144048
H	 0.583112	 2.591557	 -0.484878
C	 0.343698	 4.906779	 1.039857
H	 1.891587	 3.770682	 2.006516
H	 2.272822	 4.233922	 0.371518
C	 0.808583	 6.275758	 1.534861
H	 -0.460143	 4.545765	 1.677548
H	 -0.080018	 5.007650	 0.043149
H	 1.206287	 6.213848	 2.543926
H	 -0.010135	 6.988524	 1.545637
H	 1.589820	 6.679217	 0.896738
C	 4.024888	 -0.184556	 -0.001949
H	 4.179030	 0.422472	 -0.882452
H	 4.701782	 -1.024608	 -0.003642
H	 4.181981	 0.421185	 0.878906

15 11 8 12 F
9 5 8 12 F
1 2 3 6 F
9 5 3 6 F
