%nprocshared=4
%mem=2GB
#HF/6-31G* nosymm scf=tight opt=ModRedundant

Mol

0 1
O	 -2.042549	 -1.228399	 -0.269030
C	 -1.653912	 -0.146171	 0.050137
C	 -0.332303	 0.024011	 0.778412
C	 -2.438579	 1.106236	 -0.272369
C	 -0.044544	 1.508214	 1.054476
H	 -0.337347	 -0.531578	 1.712049
H	 0.447273	 -0.384922	 0.145200
C	 1.294231	 1.727031	 1.760756
H	 -0.843237	 1.931234	 1.661292
H	 -0.054126	 2.044139	 0.110107
C	 1.587097	 3.202750	 2.028504
H	 1.300582	 1.180242	 2.701185
H	 2.091793	 1.303907	 1.154597
H	 0.823609	 3.646189	 2.661356
H	 1.619325	 3.769761	 1.102813
H	 2.543120	 3.327805	 2.526908
H	 -3.277823	 0.863061	 -0.908988
H	 -1.806773	 1.843019	 -0.759671
H	 -2.802853	 1.554979	 0.648059

5 3 2 4 F
