%nprocshared=4
%mem=2GB
#HF/cc-pVTZ nosymm scf=tight opt=ModRedundant

Mol

0 1
H	 -0.337318	 -1.237776	 0.751943
N	 -0.625934	 -0.663929	 -0.000707
C	 -1.978635	 -0.158664	 0.001017
C	 0.271616	 -0.394720	 -0.974624
H	 -2.519057	 -0.493535	 -0.876362
H	 -1.938890	 0.917202	 -0.004137
H	 -2.514266	 -0.485137	 0.884506
C	 1.631478	 -1.025388	 -0.770042
O	 0.024962	 0.290147	 -1.922883
H	 1.545335	 -2.104968	 -0.728992
H	 2.272850	 -0.747399	 -1.590061
H	 2.069681	 -0.687522	 0.161861

4 2 3 5 F
