%nprocshared=4
%mem=2GB
#HF/6-31G* nosymm scf=tight opt=ModRedundant

Mol

0 1
O	 0.607233	 0.519223	 -0.995203
C	 1.122059	 0.121804	 -0.000188
C	 0.689074	 0.456105	 1.406461
O	 2.172624	 -0.688929	 0.000216
C	 -0.517420	 1.387979	 1.464121
H	 0.486352	 -0.482317	 1.915402
H	 1.545768	 0.889209	 1.915627
C	 -0.934746	 1.710621	 2.899776
H	 -1.347578	 0.932743	 0.932987
H	 -0.286788	 2.306108	 0.932755
C	 -2.142134	 2.644819	 2.966788
H	 -1.163925	 0.787230	 3.427888
H	 -0.098545	 2.164128	 3.428142
H	 -3.005491	 2.204469	 2.476521
H	 -2.417450	 2.857279	 3.995058
H	 -1.932290	 3.591412	 2.477331
C	 3.452279	 -0.082609	 0.000533
H	 3.583069	 0.529321	 -0.880332
H	 4.163299	 -0.894027	 0.001117
H	 3.582335	 0.529955	 0.881077

1 2 4 17 F
