%nprocshared=4
%mem=2GB
#HF/6-31G* nosymm scf=tight opt=ModRedundant

Mol

0 1
H	 3.536210	 0.916870	 -1.666649
N	 2.758747	 0.285419	 -1.647483
C	 1.701355	 0.794837	 -0.786124
H	 3.104457	 -0.588762	 -1.299458
C	 0.481670	 -0.119323	 -0.835451
H	 1.425915	 1.780061	 -1.149890
H	 2.017508	 0.921687	 0.252315
C	 -0.679275	 0.379305	 0.025956
H	 0.166863	 -0.215587	 -1.870567
H	 0.771353	 -1.117140	 -0.507151
C	 -1.903357	 -0.536963	 -0.023547
H	 -0.967307	 1.377714	 -0.299723
H	 -0.349777	 0.479628	 1.059016
C	 -3.225172	 0.228290	 0.028445
H	 -1.867824	 -1.134999	 -0.931459
H	 -1.860449	 -1.239604	 0.805977
H	 -3.313397	 0.915643	 -0.808262
H	 -4.073500	 -0.448134	 -0.008893
H	 -3.306061	 0.809945	 0.942516

12 8 11 15 F
