%nprocshared=4
%mem=2GB
#HF/cc-pVTZ nosymm scf=tight opt=ModRedundant

Mol

0 1
O	 2.080927	 -2.070638	 -1.759088
C	 1.932357	 -1.659025	 -0.659323
C	 2.401954	 -0.319059	 -0.153064
O	 1.317782	 -2.342573	 0.292610
C	 3.114768	 0.513318	 -1.211506
H	 1.531785	 0.188625	 0.245200
H	 3.050227	 -0.508254	 0.696805
C	 2.301128	 0.714896	 -2.490644
H	 4.065919	 0.050400	 -1.450438
H	 3.352626	 1.480813	 -0.786787
C	 0.848601	 1.136582	 -2.274416
H	 2.311467	 -0.218354	 -3.045714
H	 2.798054	 1.446690	 -3.123748
C	 0.703512	 2.293278	 -1.289130
H	 0.414818	 1.422969	 -3.229762
H	 0.264320	 0.294907	 -1.914230
C	 1.058691	 1.916954	 0.146489
H	 -0.318146	 2.664290	 -1.319213
H	 1.335255	 3.118816	 -1.608903
C	 0.909541	 3.077111	 1.125042
H	 0.428112	 1.092304	 0.467492
H	 2.080498	 1.548544	 0.178756
H	 1.169282	 2.776597	 2.133610
H	 -0.110752	 3.445637	 1.142402
H	 1.553941	 3.905799	 0.850759
C	 0.824678	 -3.623490	 -0.043565
H	 -0.139967	 -3.792406	 0.411591
H	 1.544729	 -4.329140	 0.337866
H	 0.731980	 -3.727573	 -1.114467

2 4 26 27 F
