%nprocshared=4
%mem=2GB
#HF/cc-pVTZ nosymm scf=tight opt=ModRedundant

Mol

0 1
H	 6.830139	 -7.991321	 -3.594019
O	 6.919685	 -7.395448	 -2.873778
C	 7.556133	 -6.217560	 -3.294236
C	 7.956337	 -5.301787	 -2.147117
H	 8.440894	 -6.534798	 -3.829530
H	 6.928136	 -5.678406	 -4.000907
C	 8.668756	 -6.010989	 -0.997621
H	 8.591166	 -4.513254	 -2.540011
H	 7.054938	 -4.823657	 -1.771257
C	 7.752919	 -6.966918	 -0.234549
H	 9.069511	 -5.270913	 -0.313015
H	 9.518458	 -6.567682	 -1.389266
C	 8.433469	 -7.760496	 0.882294
H	 6.918540	 -6.406741	 0.180469
H	 7.322127	 -7.670223	 -0.941834
C	 9.471020	 -8.778526	 0.412352
H	 8.919066	 -7.057090	 1.553073
H	 7.675322	 -8.267310	 1.475175
C	 8.855723	 -9.951941	 -0.345881
H	 10.017036	 -9.156719	 1.273923
H	 10.205507	 -8.296241	 -0.225561
C	 7.872224	 -9.517906	 -1.427656
H	 9.648292	 -10.543045	 -0.796444
H	 8.350158	 -10.608007	 0.357714
H	 8.355656	 -8.885966	 -2.165344
H	 7.456672	 -10.373657	 -1.947380
H	 7.046433	 -8.955984	 -1.003786

4 3 2 1 F
