%nprocshared=1
%mem=2GB
#HF/6-31G* nosymm scf=tight 

Mol

0 1
H	 -1.266996	 -0.590427	 0.756254
N	 -0.626943	 -0.667432	 -0.000092
C	 -0.915411	 -1.623227	 -1.045060
C	 0.469286	 0.129090	 0.000148
H	 -0.966436	 -2.630957	 -0.646459
H	 -0.122915	 -1.574916	 -1.773994
H	 -1.856943	 -1.393830	 -1.532836
C	 1.788933	 -0.616240	 -0.000037
O	 0.411098	 1.327768	 -0.000049
H	 1.872803	 -1.245775	 -0.880381
H	 2.595421	 0.101576	 0.003713
H	 1.870096	 -1.252171	 0.875943

4 2 3 5 F
