%nprocshared=4
%mem=2GB
#HF/cc-pVTZ nosymm scf=tight opt=ModRedundant

Mol

0 1
H	 -3.258660	 -0.290394	 1.471450
C	 -3.307964	 -0.275695	 0.374072
C	 -2.653809	 0.914422	 -0.273689
O	 -3.855140	 -1.148880	 -0.205112
C	 -1.221654	 0.626293	 -0.733678
H	 -3.277245	 1.246172	 -1.093812
H	 -2.636822	 1.704281	 0.474067
C	 -1.137394	 -0.372058	 -1.886231
H	 -0.762977	 1.562305	 -1.033404
H	 -0.639570	 0.261388	 0.109065
C	 0.294760	 -0.640683	 -2.340717
H	 -1.718307	 0.003843	 -2.724292
H	 -1.602927	 -1.310199	 -1.595373
C	 0.375087	 -1.630351	 -3.501472
H	 0.756859	 0.300517	 -2.621704
H	 0.870865	 -1.025961	 -1.502289
C	 1.795270	 -1.993771	 -3.938402
H	 -0.169216	 -1.229107	 -4.353248
H	 -0.141155	 -2.542615	 -3.215862
C	 2.589590	 -0.842333	 -4.550226
H	 1.734143	 -2.798034	 -4.664912
H	 2.340071	 -2.395785	 -3.088177
H	 2.065417	 -0.415823	 -5.399536
H	 2.766186	 -0.046281	 -3.836923
H	 3.556690	 -1.185764	 -4.899137

6 3 2 4 F
