%nprocshared=4
%mem=2GB
#HF/cc-pVTZ nosymm scf=tight opt=ModRedundant

Mol

0 1
H	 -2.634473	 -2.706545	 5.844053
C	 -1.809629	 -2.010226	 5.745872
C	 -1.560826	 -1.652903	 4.284455
H	 -2.051995	 -1.126483	 6.325936
H	 -0.933921	 -2.469562	 6.193024
C	 -0.396899	 -0.680530	 4.106308
H	 -2.461165	 -1.219908	 3.863927
H	 -1.357530	 -2.561522	 3.722399
C	 -0.120366	 -0.309519	 2.652772
H	 -0.590476	 0.223536	 4.670242
H	 0.502818	 -1.125513	 4.521377
C	 -1.158526	 0.603377	 2.022431
H	 0.828063	 0.216842	 2.580713
H	 -0.010439	 -1.198516	 2.038673
C	 -1.180025	 0.697761	 0.509157
O	 -1.914839	 1.238772	 2.683898
C	 -2.285431	 -0.137488	 -0.145671
H	 -0.209921	 0.373472	 0.157623
H	 -1.304974	 1.741273	 0.232271
C	 -3.646545	 0.082747	 0.508954
H	 -2.348635	 0.118247	 -1.199806
H	 -2.034895	 -1.192387	 -0.096473
C	 -4.757412	 -0.737227	 -0.138149
H	 -3.900211	 1.137405	 0.459735
H	 -3.580878	 -0.166775	 1.564416
H	 -4.867876	 -0.486707	 -1.187777
H	 -4.549650	 -1.800049	 -0.072540
H	 -5.709585	 -0.556397	 0.346597

16 12 15 17 F
