%nprocshared=4
%mem=2GB
#HF/cc-pVTZ nosymm scf=tight opt=ModRedundant

Mol

0 1
O	 -0.988175	 -1.402891	 0.050086
C	 -0.675048	 -0.248293	 -0.009686
C	 -1.742492	 0.826599	 -0.011538
N	 0.622280	 0.144970	 -0.099307
H	 -1.692153	 1.431066	 -0.908439
H	 -2.698310	 0.331559	 0.031353
H	 -1.642148	 1.483784	 0.843455
C	 1.532747	 -0.199279	 0.972369
C	 1.096273	 1.160175	 -1.009496
H	 2.500031	 -0.453897	 0.556732
H	 1.146502	 -1.040638	 1.518364
H	 1.665167	 0.631821	 1.660387
H	 2.109769	 0.925087	 -1.308149
H	 0.496530	 1.206353	 -1.902285
H	 1.104984	 2.145777	 -0.549543

8 4 2 3 F
