%nprocshared=1
%mem=2GB
#HF/6-31G* nosymm scf=tight 

Mol

0 1
H	 -1.402156	 -0.404012	 -0.563397
N	 -0.626943	 -0.667432	 -0.000092
C	 -0.727299	 -1.882669	 0.775695
C	 0.469286	 0.129090	 0.000148
H	 -1.550916	 -1.827195	 1.479671
H	 0.192636	 -2.010132	 1.322688
H	 -0.876658	 -2.743469	 0.132464
C	 1.788933	 -0.616240	 -0.000037
O	 0.411098	 1.327768	 -0.000049
H	 1.872803	 -1.245775	 -0.880381
H	 2.595421	 0.101576	 0.003713
H	 1.870096	 -1.252171	 0.875943

4 2 3 5 F
