%nprocshared=1
%mem=2GB
#HF/6-31G* nosymm scf=tight 

Mol

0 1
H	 -2.324536	 1.113979	 1.822212
C	 -1.658479	 1.212835	 2.677044
O	 -0.372610	 0.777349	 2.373352
H	 -1.593044	 2.256798	 2.950907
H	 -2.083331	 0.656514	 3.511572
C	 -0.296709	 -0.563617	 2.005524
C	 1.120400	 -0.889705	 1.596044
H	 -0.584025	 -1.201966	 2.841979
H	 -0.967619	 -0.775920	 1.175577
O	 1.392611	 -0.295398	 0.366430
H	 1.806290	 -0.529750	 2.360240
H	 1.233147	 -1.972327	 1.525948
C	 2.706965	 -0.449871	 -0.062409
H	 2.756559	 -0.644779	 -1.131878
H	 3.305899	 0.433456	 0.155466
H	 3.125548	 -1.294566	 0.467107

3 6 7 11 F
2 3 6 7 F
