%nprocshared=4
%mem=2GB
#HF/cc-pVTZ nosymm scf=tight opt=ModRedundant

Mol

0 1
H	 -2.378191	 0.687726	 1.209397
C	 -1.383281	 0.264416	 1.253350
C	 -0.600949	 0.658697	 -0.000002
H	 -1.471171	 -0.810867	 1.331627
H	 -0.893713	 0.630858	 2.145611
C	 0.763408	 0.112229	 -0.000006
H	 -1.098449	 0.301302	 -0.892019
H	 -0.524244	 1.734905	 -0.082621
N	 1.806008	 -0.317179	 0.000007

7 3 6 9 F
