%nprocshared=4
%mem=2GB
#HF/6-31G* nosymm scf=tight opt=ModRedundant

Mol

0 1
H	 -3.420663	 1.227371	 -1.044276
O	 -3.452007	 0.283848	 -0.965577
C	 -3.181085	 -0.079926	 0.364119
C	 -1.765924	 0.277073	 0.805136
H	 -3.327791	 -1.152017	 0.410903
H	 -3.905698	 0.375695	 1.036898
C	 -0.677594	 -0.417312	 -0.014550
H	 -1.637766	 1.358238	 0.744969
H	 -1.659588	 0.017670	 1.857098
C	 0.738335	 -0.034840	 0.421385
H	 -0.814977	 -0.178223	 -1.064632
H	 -0.802730	 -1.495410	 0.071702
C	 1.822265	 -0.738362	 -0.399735
H	 0.853533	 1.043532	 0.342250
H	 0.871597	 -0.279636	 1.474438
C	 3.235529	 -0.641106	 0.186251
H	 1.825283	 -0.335524	 -1.411371
H	 1.559660	 -1.790026	 -0.493852
C	 3.818173	 0.773239	 0.209925
H	 3.894725	 -1.279302	 -0.397235
H	 3.235230	 -1.048464	 1.195341
H	 3.819504	 1.211154	 -0.784744
H	 4.843770	 0.761745	 0.566095
H	 3.255719	 1.433763	 0.861475

17 13 10 7 F
