%nprocshared=1
%mem=2GB
#HF/6-31G* nosymm scf=tight opt=ModRedundant

Mol

0 1
O	 -2.042549	 -1.228399	 -0.269030
C	 -1.653912	 -0.146171	 0.050137
C	 -0.332303	 0.024011	 0.778412
C	 -2.438579	 1.106236	 -0.272369
C	 0.091491	 -1.286278	 1.460623
H	 0.442710	 0.350202	 0.090418
H	 -0.466724	 0.796149	 1.527850
C	 1.404763	 -1.150297	 2.232541
H	 0.193762	 -2.072957	 0.715130
H	 -0.700861	 -1.597561	 2.134731
C	 1.823997	 -2.449410	 2.919385
H	 2.191791	 -0.829450	 1.553519
H	 1.302448	 -0.364049	 2.976795
H	 1.967499	 -3.247379	 2.196401
H	 1.070403	 -2.777989	 3.629015
H	 2.755976	 -2.322592	 3.461010
H	 -3.277823	 0.863061	 -0.908988
H	 -1.806773	 1.843019	 -0.759671
H	 -2.802853	 1.554979	 0.648059

5 3 2 4 F
