%nprocshared=4
%mem=2GB
#HF/cc-pVTZ nosymm scf=tight opt=ModRedundant

Mol

0 1
O	 -2.081319	 -0.951530	 -0.502732
N	 -1.613558	 0.006676	 0.014756
C	 -0.329345	 -0.171618	 0.743966
O	 -2.068523	 1.100482	 -0.024385
C	 0.835904	 0.041968	 -0.213982
H	 -0.346048	 -1.174374	 1.137184
H	 -0.333613	 0.555559	 1.538590
C	 0.791210	 1.432148	 -0.842925
H	 1.765372	 -0.090243	 0.327465
H	 0.798792	 -0.716164	 -0.987672
C	 1.943654	 1.669482	 -1.812475
H	 0.817255	 2.183799	 -0.059484
H	 -0.152465	 1.562207	 -1.364431
H	 2.900889	 1.579037	 -1.311259
H	 1.925227	 0.951352	 -2.624673
H	 1.887815	 2.660994	 -2.244851

9 5 3 2 F
