%nprocshared=4
%mem=2GB
#HF/6-31G* nosymm scf=tight opt=ModRedundant

Mol

0 1
H	 -1.453691	 -0.333124	 -0.438706
N	 -0.626943	 -0.667432	 -0.000092
C	 -0.656325	 -1.980295	 0.603434
C	 0.469286	 0.129090	 0.000148
H	 -1.403361	 -2.030242	 1.388576
H	 0.313698	 -2.176658	 1.030312
H	 -0.876751	 -2.743260	 -0.135707
C	 1.788933	 -0.616240	 -0.000037
O	 0.411098	 1.327768	 -0.000049
H	 1.872803	 -1.245775	 -0.880381
H	 2.595421	 0.101576	 0.003713
H	 1.870096	 -1.252171	 0.875943

3 2 4 9 F
