%nprocshared=4
%mem=2GB
#HF/6-31G* nosymm scf=tight opt=ModRedundant

Mol

0 1
O	 -0.000843	 -0.268238	 -0.000482
C	 1.122059	 0.121804	 -0.000188
C	 1.548820	 1.569481	 -0.000482
O	 2.172624	 -0.688929	 0.000216
C	 0.377460	 2.546853	 -0.001586
H	 2.186421	 1.720146	 0.866420
H	 2.187599	 1.719521	 -0.866626
C	 0.837399	 4.005558	 -0.002211
H	 -0.247416	 2.358323	 0.865876
H	 -0.246545	 2.357357	 -0.869464
C	 -0.329930	 4.991632	 -0.004610
H	 1.462870	 4.189811	 0.868945
H	 1.465206	 4.188327	 -0.871996
H	 -0.957830	 4.857071	 0.871339
H	 0.023285	 6.018041	 -0.004713
H	 -0.955108	 4.855992	 -0.882332
C	 3.452279	 -0.082609	 0.000533
H	 3.583069	 0.529321	 -0.880332
H	 4.163299	 -0.894027	 0.001117
H	 3.582335	 0.529955	 0.881077

1 2 4 17 F
