%nprocshared=1
%mem=2GB
#HF/6-31G* nosymm scf=tight 
prop=(read,field)

Mol

0 1
H	 2.343937	 -0.101258	 -0.000192
O	 1.586715	 -0.678619	 -0.000226
C	 0.489612	 0.077320	 0.000046
C	 -0.763948	 -0.759143	 0.000191
O	 0.537924	 1.264008	 0.000257
C	 -2.038187	 0.075778	 -0.000248
H	 -0.717103	 -1.412357	 -0.866059
H	 -0.717277	 -1.411677	 0.866967
H	 -2.086302	 0.712548	 -0.875098
H	 -2.908304	 -0.571635	 -0.000042
H	 -2.086395	 0.713327	 0.874068

@grid.dat /N
