%nprocshared=4
%mem=2GB
#HF/cc-pVTZ nosymm scf=tight opt=ModRedundant

Mol

0 1
H	 0.372786	 -3.063731	 -4.270100
O	 1.311417	 -3.054546	 -4.296892
C	 1.799065	 -1.830421	 -3.814203
C	 1.658666	 -1.673376	 -2.307448
H	 2.845903	 -1.802073	 -4.084955
H	 1.312159	 -1.000761	 -4.323160
C	 1.897831	 -2.958398	 -1.517912
H	 2.350205	 -0.905291	 -1.974316
H	 0.656006	 -1.306246	 -2.101812
C	 0.811957	 -4.007407	 -1.753063
H	 1.951196	 -2.724525	 -0.459867
H	 2.863921	 -3.376876	 -1.795102
C	 1.039738	 -5.343596	 -1.043859
H	 -0.149541	 -3.599856	 -1.450325
H	 0.737905	 -4.193895	 -2.820868
C	 2.235768	 -6.148338	 -1.549471
H	 1.178462	 -5.147735	 0.015820
H	 0.139668	 -5.949256	 -1.122630
C	 2.480386	 -7.423294	 -0.746314
H	 3.127280	 -5.526013	 -1.512242
H	 2.093429	 -6.413841	 -2.592663
C	 3.671537	 -8.231085	 -1.250819
H	 2.636888	 -7.165223	 0.297470
H	 1.587623	 -8.042315	 -0.775472
H	 4.586551	 -7.649877	 -1.204074
H	 3.818560	 -9.126666	 -0.658008
H	 3.528786	 -8.537304	 -2.281936

8 4 3 2 F
