%nprocshared=4
%mem=2GB
#HF/cc-pVTZ nosymm scf=tight opt=ModRedundant

Mol

0 1
H	 1.166964	 -1.062386	 0.758429
O	 1.324748	 -0.612467	 -0.052206
C	 0.706474	 0.636793	 -0.025501
C	 -0.730619	 0.614575	 0.412568
H	 0.765948	 1.030037	 -1.033530
H	 1.256834	 1.328381	 0.609723
C	 -1.443657	 -0.462508	 0.657062
H	 -1.181390	 1.587143	 0.522862
H	 -1.035484	 -1.448477	 0.542030
H	 -2.468095	 -0.390029	 0.969044

5 3 2 1 F
