%nprocshared=4
%mem=2GB
#HF/cc-pVTZ nosymm scf=tight opt=ModRedundant

Mol

0 1
H	 -0.000105	 1.988529	 0.748933
O	 -0.000098	 1.879786	 -0.188206
C	 -0.000014	 0.545691	 -0.532416
C	 -1.195501	 0.232755	 -1.433893
C	 0.090543	 -0.323642	 0.722906
H	 0.890154	 0.352764	 -1.112969
F	 -1.123772	 0.964932	 -2.518159
F	 -1.228060	 -1.023982	 -1.798943
F	 -2.332985	 0.515487	 -0.835924
F	 1.194058	 -0.037873	 1.369008
F	 0.108499	 -1.602244	 0.442602
F	 -0.918444	 -0.096489	 1.536369

6 3 2 1 F
