%nprocshared=4
%mem=2GB
#HF/6-31G* nosymm scf=tight opt=ModRedundant

Mol

0 1
H	 -3.420663	 1.227371	 -1.044276
O	 -3.452007	 0.283848	 -0.965577
C	 -3.181085	 -0.079926	 0.364119
C	 -1.765924	 0.277073	 0.805136
H	 -3.327791	 -1.152017	 0.410903
H	 -3.905698	 0.375695	 1.036898
C	 -0.677518	 -0.398609	 -0.029934
H	 -1.643381	 1.359694	 0.761808
H	 -1.654007	 0.001388	 1.852367
C	 0.738264	 -0.016055	 0.406407
H	 -0.820374	 -0.143421	 -1.075487
H	 -0.796948	 -1.478566	 0.039513
C	 1.822310	 -0.700873	 -0.430227
H	 0.847784	 1.064012	 0.344120
H	 0.877039	 -0.277018	 1.454855
C	 3.258539	 -0.418425	 0.025433
H	 1.712387	 -0.405462	 -1.472505
H	 1.656589	 -1.775829	 -0.401546
C	 3.701673	 1.037110	 -0.134112
H	 3.932024	 -1.051937	 -0.546730
H	 3.371412	 -0.718334	 1.065393
H	 3.587919	 1.368865	 -1.162770
H	 4.746833	 1.153672	 0.135869
H	 3.127026	 1.708352	 0.495474

7 4 3 2 F
