%nprocshared=4
%mem=2GB
#HF/cc-pVTZ nosymm scf=tight opt=ModRedundant

Mol

0 1
O	 3.493432	 -2.692994	 0.390347
C	 2.574127	 -2.072921	 -0.023620
C	 2.660704	 -0.895072	 -0.960372
O	 1.317782	 -2.342573	 0.292610
C	 4.087715	 -0.542399	 -1.361016
H	 2.043950	 -1.130933	 -1.819172
H	 2.175565	 -0.058609	 -0.467117
C	 4.871461	 -1.715040	 -1.952196
H	 4.613941	 -0.146080	 -0.499571
H	 4.053662	 0.262047	 -2.085390
C	 4.129643	 -2.516671	 -3.020606
H	 5.137541	 -2.384649	 -1.139798
H	 5.811200	 -1.351788	 -2.362342
C	 3.483990	 -1.635499	 -4.086652
H	 4.824844	 -3.204269	 -3.496816
H	 3.360350	 -3.130322	 -2.561088
C	 2.318393	 -0.801952	 -3.561909
H	 3.136608	 -2.259961	 -4.906232
H	 4.236036	 -0.972620	 -4.508416
C	 1.677524	 0.074234	 -4.633059
H	 1.566016	 -1.462958	 -3.140338
H	 2.664564	 -0.175167	 -2.744497
H	 0.854843	 0.652149	 -4.227851
H	 1.289271	 -0.526240	 -5.449024
H	 2.396776	 0.770981	 -5.050705
C	 0.824678	 -3.623490	 -0.043565
H	 -0.139967	 -3.792406	 0.411591
H	 1.544729	 -4.329140	 0.337866
H	 0.731980	 -3.727573	 -1.114467

1 2 4 26 F
