%nprocshared=4
%mem=2GB
#HF/cc-pVTZ nosymm scf=tight 
prop=(read,field)

Mol

0 1
O	 1.199770	 1.412055	 -0.018484
C	 0.860910	 0.273282	 -0.013121
C	 -0.623301	 -0.117375	 -0.005653
C	 1.908477	 -0.822430	 -0.006663
C	 -0.892521	 -1.253763	 -1.002901
C	 -1.473396	 1.100724	 -0.372897
C	 -0.981769	 -0.578947	 1.418505
H	 -0.609266	 -0.969946	 -2.010650
H	 -1.950384	 -1.487275	 -1.013176
H	 -0.360781	 -2.161181	 -0.746464
H	 -1.232136	 1.461701	 -1.364828
H	 -2.524297	 0.834529	 -0.354501
H	 -1.312314	 1.914911	 0.318656
H	 -2.035639	 -0.826264	 1.468081
H	 -0.425011	 -1.458856	 1.716856
H	 -0.788427	 0.205125	 2.140902
H	 2.006248	 -1.227457	 -1.007741
H	 2.854780	 -0.395982	 0.288501
H	 1.649931	 -1.640086	 0.651991

@grid.dat /N
