%nprocshared=4
%mem=2GB
#HF/cc-pVTZ nosymm scf=tight opt=ModRedundant

Mol

0 1
O	 0.128609	 0.773763	 -1.669854
C	 0.781622	 1.719742	 -1.387478
C	 1.874824	 1.751092	 -0.350381
O	 0.630629	 2.901797	 -1.962250
C	 2.843999	 0.581450	 -0.445037
H	 2.391443	 2.699291	 -0.457489
H	 1.393879	 1.785389	 0.621708
C	 3.435196	 0.429096	 -1.843355
H	 2.332036	 -0.330733	 -0.160275
H	 3.639861	 0.717461	 0.278423
C	 2.443262	 -0.137529	 -2.855022
H	 3.790553	 1.395448	 -2.194264
H	 4.309015	 -0.217234	 -1.799360
C	 3.033924	 -0.289361	 -4.252691
H	 1.570509	 0.507756	 -2.900489
H	 2.088906	 -1.103462	 -2.506358
H	 3.366450	 0.666667	 -4.643423
H	 2.304465	 -0.693232	 -4.945160
H	 3.888704	 -0.957600	 -4.246253
C	 1.774850	 3.725117	 -2.063383
H	 2.168391	 3.953019	 -1.083894
H	 1.449161	 4.628457	 -2.553025
H	 2.542901	 3.240436	 -2.647673

1 2 4 20 F
