%nprocshared=4
%mem=2GB
#HF/cc-pVTZ nosymm scf=tight opt=ModRedundant

Mol

0 1
H	 -0.915085	 -1.058959	 -0.860605
N	 -0.625934	 -0.663929	 -0.000707
C	 -1.392054	 -0.966067	 1.185407
C	 0.468494	 0.129045	 -0.002160
H	 -2.417069	 -0.630707	 1.081167
H	 -0.941733	 -0.455324	 2.019341
H	 -1.393662	 -2.030826	 1.386214
C	 1.785715	 -0.615093	 0.000603
O	 0.413285	 1.323206	 0.000532
H	 1.866994	 -1.243310	 -0.878792
H	 2.591506	 0.100263	 0.006422
H	 1.860358	 -1.250360	 0.875522

3 2 4 9 F
