%nprocshared=4
%mem=2GB
#HF/6-31G* nosymm scf=tight opt=ModRedundant

Mol

0 1
H	 -2.646374	 -0.642757	 1.268656
C	 -2.083525	 -0.384536	 0.393091
O	 -0.807605	 -0.127164	 0.768327
F	 -2.118945	 -1.383102	 -0.486752
F	 -2.621877	 0.670592	 -0.209486
C	 0.084052	 0.273579	 -0.209957
C	 1.126434	 1.151084	 0.470915
Cl	 -0.746205	 1.171245	 -1.491395
H	 0.589562	 -0.558063	 -0.668875
F	 2.022035	 1.561892	 -0.401596
F	 1.747018	 0.437811	 1.389367
F	 0.590186	 2.197499	 1.050077

9 6 3 2 F
