%nprocshared=4
%mem=2GB
#HF/cc-pVTZ nosymm scf=tight opt=ModRedundant

Mol

0 1
H	 3.889604	 0.356866	 -0.089510
N	 3.091268	 -0.241216	 -0.065538
C	 1.860978	 0.530248	 0.016256
H	 3.192566	 -0.835836	 0.730398
C	 0.644130	 -0.381765	 -0.031064
H	 1.835721	 1.204666	 -0.833114
H	 1.808789	 1.151975	 0.911067
C	 -0.678115	 0.376691	 0.025731
H	 0.693998	 -0.977147	 -0.936845
H	 0.693309	 -1.082142	 0.800523
C	 -1.491678	 0.270294	 -1.261124
H	 -0.482217	 1.425369	 0.237517
H	 -1.274647	 0.005836	 0.856085
C	 -2.809752	 1.035103	 -1.202625
H	 -0.897287	 0.639864	 -2.092033
H	 -1.692065	 -0.776472	 -1.473010
H	 -2.641285	 2.092380	 -1.026486
H	 -3.361586	 0.938951	 -2.130655
H	 -3.442098	 0.665088	 -0.402273

12 8 5 9 F
