%nprocshared=4
%mem=2GB
#HF/cc-pVTZ nosymm scf=tight opt=ModRedundant

Mol

0 1
O	 0.623971	 1.347241	 -0.000777
C	 0.485107	 0.171416	 -0.000134
C	 1.606966	 -0.836201	 0.000174
O	 -0.695554	 -0.422406	 0.000602
C	 2.988788	 -0.202529	 -0.000115
H	 1.465110	 -1.474645	 -0.864821
H	 1.465209	 -1.474077	 0.865596
H	 3.131767	 0.419673	 -0.873407
H	 3.750876	 -0.972315	 0.000098
H	 3.131883	 0.420264	 0.872742
C	 -0.855047	 -1.579662	 0.809062
C	 -2.275276	 -2.067157	 0.642370
H	 -0.641275	 -1.324114	 1.837335
H	 -0.139516	 -2.328210	 0.499202
H	 -2.982565	 -1.309167	 0.954725
H	 -2.431456	 -2.952119	 1.247914
H	 -2.477946	 -2.319046	 -0.390997

11 4 2 3 F
