%nprocshared=1
%mem=2GB
#HF/6-31G* nosymm scf=tight opt=ModRedundant

Mol

0 1
H	 -3.420663	 1.227371	 -1.044276
O	 -3.452007	 0.283848	 -0.965577
C	 -3.181085	 -0.079926	 0.364119
C	 -1.765924	 0.277073	 0.805136
H	 -3.327791	 -1.152017	 0.410903
H	 -3.905698	 0.375695	 1.036898
C	 -0.677594	 -0.417312	 -0.014550
H	 -1.637766	 1.358238	 0.744969
H	 -1.659588	 0.017670	 1.857098
C	 0.738335	 -0.034840	 0.421385
H	 -0.814977	 -0.178223	 -1.064632
H	 -0.802730	 -1.495410	 0.071702
C	 1.822265	 -0.738362	 -0.399735
H	 0.853533	 1.043532	 0.342250
H	 0.871597	 -0.279636	 1.474438
C	 2.944026	 0.178548	 -0.900817
H	 1.361385	 -1.238411	 -1.250167
H	 2.265085	 -1.523778	 0.209238
C	 2.499327	 1.228313	 -1.920935
H	 3.717630	 -0.438623	 -1.351292
H	 3.409252	 0.674805	 -0.051407
H	 2.018713	 0.761490	 -2.776637
H	 3.350476	 1.793144	 -2.288832
H	 1.798500	 1.938319	 -1.494441

17 13 10 7 F
