%nprocshared=4
%mem=2GB
#HF/cc-pVTZ nosymm scf=tight opt=ModRedundant

Mol

0 1
H	 -1.514942	 -0.229484	 0.001247
N	 -0.625934	 -0.663929	 -0.000707
C	 -0.567170	 -2.106715	 -0.003937
C	 0.468494	 0.129045	 -0.002160
H	 -1.050809	 -2.516739	 0.874677
H	 0.467561	 -2.404074	 -0.002482
H	 -1.047171	 -2.513202	 -0.886210
C	 1.785715	 -0.615093	 0.000603
O	 0.413285	 1.323206	 0.000532
H	 1.866994	 -1.243310	 -0.878792
H	 2.591506	 0.100263	 0.006422
H	 1.860358	 -1.250360	 0.875522

3 2 4 9 F
