%nprocshared=4
%mem=2GB
#HF/cc-pVTZ nosymm scf=tight opt=ModRedundant

Mol

0 1
O	 0.918239	 -0.029706	 0.774354
C	 0.029490	 0.077183	 0.000078
C	 -1.232113	 -0.748027	 0.000015
O	 0.030153	 0.955958	 -0.988348
C	 -2.501422	 0.088592	 -0.000052
H	 -1.188777	 -1.400384	 -0.865133
H	 -1.188857	 -1.400312	 0.865225
H	 -2.548170	 0.725504	 -0.873205
H	 -3.371613	 -0.556398	 -0.000040
H	 -2.548215	 0.725571	 0.873047
C	 1.158405	 1.799033	 -1.106308
H	 1.281046	 2.398484	 -0.216447
H	 0.969589	 2.431793	 -1.958241
H	 2.054078	 1.217030	 -1.265332

4 2 3 6 F
