%nprocshared=1
%mem=2GB
#HF/6-31G* nosymm scf=tight 

Mol

0 1
O	 -0.682937	 1.318834	 -0.186099
C	 -0.860635	 0.152188	 -0.042321
C	 -2.173363	 -0.477127	 0.338347
O	 0.083258	 -0.765189	 -0.202595
H	 -2.477673	 -1.180929	 -0.427595
H	 -2.923125	 0.290956	 0.455536
H	 -2.058825	 -1.029004	 1.264191
C	 0.714299	 -0.873560	 -1.476503
C	 1.845117	 0.127470	 -1.624275
H	 -0.026296	 -0.746094	 -2.251366
H	 1.087567	 -1.887037	 -1.508651
H	 2.353429	 -0.029854	 -2.570636
H	 1.467232	 1.141981	 -1.605890
H	 2.568246	 0.006805	 -0.824938

10 8 4 2 F
