%nprocshared=4
%mem=2GB
#HF/cc-pVTZ nosymm scf=tight opt=ModRedundant

Mol

0 1
O	 -0.988175	 -1.402891	 0.050086
C	 -0.675048	 -0.248293	 -0.009686
C	 -1.742492	 0.826599	 -0.011538
N	 0.622280	 0.144970	 -0.099307
H	 -1.692153	 1.431066	 -0.908439
H	 -2.698310	 0.331559	 0.031353
H	 -1.642148	 1.483784	 0.843455
C	 1.643081	 -0.857702	 -0.319674
C	 1.106500	 1.433157	 0.336421
H	 2.396345	 -0.464676	 -0.991497
H	 1.199945	 -1.734951	 -0.754699
H	 2.129126	 -1.137773	 0.611429
H	 1.935032	 1.733037	 -0.292263
H	 0.346959	 2.191934	 0.257362
H	 1.461106	 1.407130	 1.364341

8 4 2 3 F
