%nprocshared=4
%mem=2GB
#HF/6-31G* nosymm scf=tight opt=ModRedundant

Mol

0 1
H	 2.465338	 -2.224223	 0.000000
O	 2.784187	 -1.332015	 0.000000
C	 1.765313	 -0.449364	 0.000000
C	 1.142058	 -0.193439	 1.217374
C	 1.335369	 0.190503	 -1.146234
H	 1.494640	 -0.703392	 2.094010
C	 0.093077	 0.700141	 1.282327
H	 1.797173	 0.012314	 -2.097293
C	 0.279315	 1.081754	 -1.045040
H	 -0.382351	 0.891782	 2.226307
C	 -0.357487	 1.355922	 0.144440
N	 -0.171575	 1.755946	 -2.260627
H	 -1.169950	 2.051707	 0.178956
O	 0.397162	 1.500874	 -3.279208
O	 -1.081017	 2.521462	 -2.164891

4 3 2 1 F
