%nprocshared=1
%mem=2GB
#HF/6-31G* nosymm scf=tight 

Mol

0 1
O	 2.862325	 1.357334	 0.000267
C	 2.843464	 0.164689	 -0.000222
C	 1.546494	 -0.624492	 -0.000609
C	 4.124123	 -0.644674	 -0.000428
C	 0.291004	 0.242674	 0.000989
H	 1.557904	 -1.283758	 -0.867573
H	 1.558622	 -1.285963	 0.864672
C	 -0.924417	 -0.486454	 0.576218
H	 0.081192	 0.566711	 -1.013461
H	 0.483412	 1.146185	 0.570896
C	 -2.189673	 0.373098	 0.581593
H	 -1.109588	 -1.393244	 0.002205
H	 -0.706601	 -0.810059	 1.593028
C	 -3.409871	 -0.349305	 1.155409
H	 -2.408769	 0.696574	 -0.434467
H	 -2.006008	 1.279456	 1.155856
C	 -4.669842	 0.515653	 1.157210
H	 -3.595176	 -1.254868	 0.581438
H	 -3.192609	 -0.671817	 2.171599
H	 -4.933229	 0.826613	 0.150194
H	 -5.517285	 -0.023834	 1.568907
H	 -4.528228	 1.413229	 1.752564
H	 4.165367	 -1.288615	 -0.874074
H	 4.976217	 0.020734	 -0.001915
H	 4.166763	 -1.286207	 0.874930

9 5 8 12 F
15 11 8 12 F
15 11 14 18 F
1 2 3 6 F
