%nprocshared=1
%mem=2GB
#HF/6-31G* nosymm scf=tight opt=ModRedundant

Mol

0 1
O	 -0.682937	 1.318834	 -0.186099
C	 -0.860635	 0.152188	 -0.042321
C	 -2.173363	 -0.477127	 0.338347
O	 0.083258	 -0.765189	 -0.202595
H	 -2.477673	 -1.180929	 -0.427595
H	 -2.923125	 0.290956	 0.455536
H	 -2.058825	 -1.029004	 1.264191
C	 -0.263307	 -1.989660	 -0.845527
C	 -0.210155	 -1.859294	 -2.356429
H	 -1.241925	 -2.300615	 -0.512729
H	 0.471293	 -2.698757	 -0.491913
H	 -0.403792	 -2.824033	 -2.815247
H	 -0.956433	 -1.158879	 -2.709778
H	 0.769474	 -1.520590	 -2.675838

8 4 2 1 F
