%nprocshared=4
%mem=2GB
#HF/cc-pVTZ nosymm scf=tight opt=ModRedundant

Mol

0 1
O	 -1.510770	 1.240811	 -0.054933
C	 -1.081510	 0.147522	 0.122720
C	 0.327029	 -0.064006	 0.641890
C	 -1.903028	 -1.084121	 -0.174656
C	 1.349460	 -0.017068	 -0.500215
H	 0.399029	 -1.014606	 1.159950
H	 0.538021	 0.726928	 1.350471
C	 0.690222	 -0.064190	 -1.873871
H	 1.948392	 0.885464	 -0.419262
H	 2.030228	 -0.852951	 -0.389842
H	 1.434071	 -0.041205	 -2.661393
H	 0.025657	 0.780565	 -2.020480
H	 0.106545	 -0.970046	 -1.994765
H	 -1.341891	 -1.779207	 -0.789259
H	 -2.820449	 -0.808163	 -0.671328
H	 -2.133314	 -1.593056	 0.755831

9 5 3 2 F
