%nprocshared=4
%mem=2GB
#HF/cc-pVTZ nosymm scf=tight opt=ModRedundant

Mol

0 1
H	 -1.088256	 -1.364742	 0.152233
O	 -1.432053	 -0.565244	 -0.200812
C	 -0.727158	 0.534527	 0.310686
C	 0.680222	 0.664433	 -0.252229
H	 -1.306802	 1.408001	 0.044211
H	 -0.690821	 0.490158	 1.397609
C	 1.774323	 0.662384	 0.811249
H	 0.848966	 -0.146260	 -0.953324
H	 0.729924	 1.589705	 -0.819725
H	 1.794617	 -0.272819	 1.359982
H	 2.751974	 0.790506	 0.362545
H	 1.631279	 1.468436	 1.524533

8 4 3 2 F
