%nprocshared=4
%mem=2GB
#HF/cc-pVTZ nosymm scf=tight opt=ModRedundant

Mol

0 1
H	 -2.440697	 -1.809171	 -0.004085
C	 -1.667441	 -1.070247	 -0.002355
C	 -1.963125	 0.330367	 -0.000184
C	 -0.381683	 -1.430607	 -0.002215
H	 -2.987307	 0.653179	 -0.000286
C	 -0.977437	 1.233135	 0.001946
H	 -0.081177	 -2.459604	 -0.003802
N	 0.640204	 -0.530428	 -0.000115
H	 -1.161186	 2.287742	 0.003613
C	 0.423274	 0.836600	 0.002239
C	 2.006991	 -1.033007	 -0.000020
O	 1.336088	 1.616990	 0.004196
H	 2.182444	 -1.636914	 -0.880881
H	 2.678769	 -0.195442	 -0.002236
H	 2.183828	 -1.633244	 0.883082

10 8 11 13 F
