%nprocshared=4
%mem=2GB
#HF/6-31G* nosymm scf=tight opt=ModRedundant

Mol

0 1
H	 -2.817379	 -0.274430	 0.811810
C	 -2.645458	 0.373282	 -0.045542
O	 -1.289006	 0.489545	 -0.331653
H	 -3.125747	 -0.058833	 -0.912572
H	 -3.096429	 1.343428	 0.159079
C	 -0.534021	 1.042280	 0.699720
C	 0.927453	 1.016298	 0.318112
H	 -0.838963	 2.073768	 0.880656
H	 -0.673388	 0.484293	 1.623425
O	 1.392611	 -0.295398	 0.366430
H	 1.044709	 1.432037	 -0.680597
H	 1.490129	 1.642784	 1.011369
C	 2.706965	 -0.449871	 -0.062409
H	 2.756559	 -0.644779	 -1.131878
H	 3.305899	 0.433456	 0.155466
H	 3.125548	 -1.294566	 0.467107

7 10 13 14 F
