%nprocshared=1
%mem=2GB
#HF/6-31G* nosymm scf=tight opt=ModRedundant

Mol

0 1
O	 0.625848	 1.349995	 -0.000749
C	 0.486307	 0.169203	 0.000779
C	 1.608116	 -0.841643	 0.000302
O	 -0.698257	 -0.426125	 0.001050
C	 2.990107	 -0.200498	 -0.000684
H	 1.468623	 -1.481519	 -0.865924
H	 1.469683	 -1.481289	 0.866878
H	 3.129736	 0.423364	 -0.875135
H	 3.757882	 -0.966877	 -0.001197
H	 3.130964	 0.423383	 0.873533
C	 -1.569248	 -0.157529	 1.094956
C	 -2.842533	 -0.943738	 0.864888
H	 -1.759124	 0.906130	 1.141441
H	 -1.080321	 -0.448498	 2.014673
H	 -3.317187	 -0.644509	 -0.062649
H	 -3.537904	 -0.767247	 1.679110
H	 -2.634787	 -2.006588	 0.815406

11 4 2 3 F
