%nprocshared=4
%mem=2GB
#HF/cc-pVTZ nosymm scf=tight opt=ModRedundant

Mol

0 1
H	 -2.644180	 -0.653737	 1.272255
C	 -2.092774	 -0.380414	 0.391915
O	 -0.808934	 -0.154049	 0.752536
F	 -2.163230	 -1.351640	 -0.507133
F	 -2.627232	 0.691260	 -0.169301
C	 0.123661	 -1.142108	 0.521653
C	 0.993071	 -1.251464	 1.772031
Cl	 1.129573	 -0.758103	 -0.887679
H	 -0.327132	 -2.102484	 0.342460
F	 1.895147	 -2.187884	 1.622368
F	 0.235351	 -1.579459	 2.791636
F	 1.596628	 -0.129849	 2.054788

6 3 2 4 F
