%nprocshared=4
%mem=2GB
#HF/cc-pVTZ nosymm scf=tight opt=ModRedundant

Mol

0 1
H	 2.342730	 0.877684	 -1.045694
C	 2.360424	 0.000000	 -0.411793
C	 1.173749	 0.000000	 0.526870
H	 3.286567	 0.000000	 0.151574
H	 2.342730	 -0.877684	 -1.045694
O	 -0.000000	 0.000000	 -0.223739
H	 1.203779	 0.876757	 1.172538
H	 1.203779	 -0.876757	 1.172538
C	 -1.173749	 0.000000	 0.526870
C	 -2.351035	 0.222578	 -0.397112
H	 -1.133728	 0.783932	 1.282078
H	 -1.280760	 -0.948214	 1.052161
H	 -2.256304	 1.171199	 -0.910548
H	 -3.277018	 0.226367	 0.166505
H	 -2.403491	 -0.562778	 -1.140709

11 9 6 3 F
