%nprocshared=4
%mem=2GB
#HF/cc-pVTZ nosymm scf=tight opt=ModRedundant

Mol

0 1
H	 -8.221481	 0.781049	 -1.045620
C	 -7.274804	 0.414528	 -1.465562
C	 -6.205547	 0.114126	 -0.450505
O	 -7.154209	 0.293461	 -2.635223
C	 -4.840279	 0.688604	 -0.839982
H	 -6.532796	 0.481488	 0.513491
H	 -6.132628	 -0.969432	 -0.388145
C	 -4.789956	 2.214817	 -0.822038
H	 -4.095327	 0.295397	 -0.156772
H	 -4.565523	 0.325570	 -1.827357
C	 -5.641798	 2.853761	 -1.915610
H	 -3.757959	 2.537010	 -0.932857
H	 -5.116526	 2.582510	 0.147281
C	 -6.900381	 3.527547	 -1.372262
H	 -5.037082	 3.575553	 -2.455684
H	 -5.927719	 2.092630	 -2.638262
C	 -7.827821	 4.111512	 -2.439380
H	 -6.614724	 4.314215	 -0.677756
H	 -7.459838	 2.800038	 -0.790848
C	 -7.244121	 5.287623	 -3.218572
H	 -8.743922	 4.435874	 -1.955707
H	 -8.114795	 3.326049	 -3.133643
H	 -6.941812	 6.086551	 -2.549005
H	 -6.377675	 4.999038	 -3.801388
H	 -7.976863	 5.694192	 -3.906144

12 8 11 14 F
