%nprocshared=4
%mem=2GB
#HF/6-31G* nosymm scf=tight opt=ModRedundant

Mol

0 1
O	 1.696138	 1.118290	 -0.637235
C	 1.705091	 0.115954	 0.001797
C	 0.592902	 -0.360560	 0.903926
O	 2.721346	 -0.737485	 -0.000216
C	 -0.604069	 0.584677	 0.941778
H	 0.301853	 -1.351097	 0.565045
H	 1.015994	 -0.500016	 1.895019
C	 -1.715376	 0.077365	 1.861936
H	 -0.989016	 0.714647	 -0.064757
H	 -0.274457	 1.566250	 1.267629
C	 -2.924420	 1.013126	 1.911160
H	 -2.039084	 -0.908750	 1.532107
H	 -1.322504	 -0.053198	 2.869153
C	 -4.033960	 0.506313	 2.831656
H	 -3.319644	 1.142559	 0.906080
H	 -2.602820	 1.998373	 2.241310
H	 -4.401069	 -0.463173	 2.506782
H	 -4.876387	 1.190840	 2.845460
H	 -3.678376	 0.399002	 3.852614
C	 4.024888	 -0.184556	 -0.001949
H	 4.179030	 0.422472	 -0.882452
H	 4.701782	 -1.024608	 -0.003642
H	 4.181981	 0.421185	 0.878906

1 2 4 20 F
