%nprocshared=4
%mem=2GB
#HF/cc-pVTZ nosymm scf=tight opt=ModRedundant

Mol

0 1
H	 1.351567	 -2.119154	 -0.665860
C	 0.411423	 -1.611671	 -0.801593
O	 0.462329	 -0.453336	 -0.000137
H	 -0.393731	 -2.265532	 -0.491092
H	 0.292277	 -1.357369	 -1.847238
C	 -0.590565	 0.341382	 0.000062
O	 -1.693898	 -0.053880	 0.000252
H	 -0.340426	 1.403822	 0.000200

2 3 6 7 F
