%nprocshared=1
%mem=2GB
#HF/6-31G* nosymm scf=tight 

Mol

0 1
H	 -1.784935	 0.877483	 2.480300
O	 -1.388375	 1.676263	 2.162371
C	 -0.725420	 1.424905	 0.952289
C	 0.572842	 0.671408	 1.181255
H	 -1.352183	 0.870959	 0.258986
H	 -0.511030	 2.385864	 0.506145
O	 1.171513	 0.459272	 -0.058250
H	 0.371307	 -0.279889	 1.677640
H	 1.220457	 1.250323	 1.837025
C	 2.397842	 -0.198080	 -0.002151
H	 2.508049	 -0.905315	 -0.822092
H	 3.173794	 0.550865	 -0.078850
H	 2.517602	 -0.735921	 0.936026

8 4 3 5 F
1 2 3 5 F
10 7 4 8 F
