%nprocshared=1
%mem=2GB
#HF/6-31G* nosymm scf=tight opt=ModRedundant

Mol

0 1
O	 2.009191	 0.671872	 0.699141
C	 2.701189	 0.057885	 -0.047330
C	 2.965967	 0.408057	 -1.491650
O	 3.347903	 -1.046386	 0.304773
C	 2.251788	 1.680927	 -1.940947
H	 4.042026	 0.482310	 -1.609019
H	 2.660032	 -0.444875	 -2.092156
C	 2.425415	 1.992710	 -3.431296
H	 2.603928	 2.518599	 -1.346455
H	 1.194678	 1.580599	 -1.719869
C	 3.854633	 2.343221	 -3.855073
H	 1.774963	 2.828477	 -3.678538
H	 2.070214	 1.149475	 -4.021887
C	 3.955599	 2.752657	 -5.325844
H	 4.224275	 3.154579	 -3.229867
H	 4.515462	 1.497268	 -3.680028
C	 5.380128	 3.100121	 -5.761869
H	 3.306695	 3.607940	 -5.506540
H	 3.576134	 1.945941	 -5.951075
C	 5.471687	 3.511617	 -7.230878
H	 5.761222	 3.905419	 -5.137445
H	 6.029380	 2.244933	 -5.586069
H	 6.493113	 3.751559	 -7.509666
H	 4.859901	 4.386583	 -7.431747
H	 5.129530	 2.713478	 -7.883699
C	 4.728119	 -1.109107	 -0.004993
H	 4.882018	 -1.033965	 -1.071845
H	 5.068212	 -2.067527	 0.355250
H	 5.265056	 -0.311663	 0.488280

1 2 4 26 F
