%nprocshared=4
%mem=2GB
#HF/cc-pVTZ nosymm scf=tight opt=ModRedundant

Mol

0 1
H	 2.867672	 -0.456275	 0.875795
C	 2.403497	 -0.020426	 0.000000
N	 0.989899	 -0.304564	 0.000000
H	 2.867672	 -0.456275	 -0.875795
H	 2.620366	 1.051270	 0.000000
C	 0.493171	 -0.641469	 -1.318076
C	 0.209742	 0.768603	 0.580719
H	 0.636155	 0.184083	 -2.022180
H	 1.041639	 -1.495490	 -1.698285
C	 -0.982759	 -0.983111	 -1.246287
H	 0.550249	 0.949198	 1.593718
H	 0.331408	 1.700214	 0.019433
C	 -1.258906	 0.390731	 0.603720
H	 -1.382983	 -1.146204	 -2.237170
H	 -1.117415	 -1.893506	 -0.665644
O	 -1.714977	 0.059969	 -0.674459
H	 -1.858740	 1.220702	 0.950093
H	 -1.407852	 -0.448573	 1.280096

6 3 2 5 F
