%nprocshared=4
%mem=2GB
#HF/6-31G* nosymm scf=tight opt=ModRedundant

Mol

0 1
H	 1.597736	 -2.704271	 -1.635715
O	 1.541822	 -2.227990	 -0.813045
C	 0.767240	 -1.160518	 -1.005248
C	 0.624473	 -0.343591	 0.253101
O	 0.270880	 -0.921871	 -2.057716
C	 -0.265902	 0.883932	 0.072916
H	 0.249776	 -1.010225	 1.022889
H	 1.625603	 -0.059767	 0.567640
C	 -1.728698	 0.646073	 0.462102
H	 -0.209144	 1.219470	 -0.958188
H	 0.135059	 1.692851	 0.673903
C	 -2.482460	 -0.343073	 -0.431425
H	 -2.245265	 1.602650	 0.432430
H	 -1.779332	 0.308348	 1.496285
C	 -3.960546	 -0.461025	 -0.060175
H	 -2.395034	 -0.026811	 -1.468912
H	 -2.024850	 -1.327147	 -0.371646
H	 -4.472726	 -1.168004	 -0.705284
H	 -4.465146	 0.496508	 -0.151489
H	 -4.081218	 -0.800940	 0.964585

7 4 6 10 F
