%nprocshared=4
%mem=2GB
#HF/cc-pVTZ nosymm scf=tight opt=ModRedundant

Mol

0 1
H	 2.614283	 2.028610	 0.296620
O	 3.358864	 1.662087	 -0.142800
C	 3.565468	 0.338079	 0.273842
C	 2.533667	 -0.637565	 -0.272227
H	 4.548038	 0.064914	 -0.086598
H	 3.593945	 0.282242	 1.360360
C	 1.114816	 -0.402372	 0.240993
H	 2.544552	 -0.580764	 -1.356576
H	 2.850574	 -1.642962	 -0.005497
C	 0.113298	 -1.420414	 -0.302504
H	 0.796373	 0.598427	 -0.031033
H	 1.113377	 -0.446476	 1.328807
C	 0.689817	 -2.423109	 -1.303744
H	 -0.333720	 -1.960151	 0.528813
H	 -0.698420	 -0.882433	 -0.784333
C	 1.702815	 -3.407744	 -0.722304
H	 -0.133267	 -2.987697	 -1.733047
H	 1.146990	 -1.882561	 -2.129550
C	 2.173180	 -4.448627	 -1.735087
H	 1.259150	 -3.915093	 0.131644
H	 2.568176	 -2.872995	 -0.342572
C	 3.187490	 -5.431005	 -1.158892
H	 1.313980	 -4.997545	 -2.110641
H	 2.609053	 -3.943106	 -2.592715
H	 2.770506	 -5.976237	 -0.318603
H	 3.497926	 -6.156598	 -1.902028
H	 4.076106	 -4.916257	 -0.808537

14 10 7 4 F
