%nprocshared=4
%mem=2GB
#HF/cc-pVTZ nosymm scf=tight opt=ModRedundant

Mol

0 1
O	 1.216069	 1.304886	 0.000821
C	 1.121787	 0.124983	 0.000110
C	 -0.170912	 -0.649867	 -0.000147
O	 2.167739	 -0.685178	 -0.000678
C	 -1.413045	 0.229353	 0.001137
H	 -0.152877	 -1.303435	 -0.866175
H	 -0.152278	 -1.305116	 0.864586
C	 -1.139204	 1.623072	 -0.556419
H	 -1.795731	 0.307107	 1.012594
H	 -2.192847	 -0.251511	 -0.578711
C	 -2.376981	 2.513463	 -0.557655
H	 -0.354766	 2.098531	 0.026536
H	 -0.755855	 1.538709	 -1.569909
H	 -2.764173	 2.645415	 0.446962
H	 -2.153206	 3.495414	 -0.958122
H	 -3.168121	 2.081630	 -1.161145
C	 3.449556	 -0.089977	 -0.000570
H	 3.585694	 0.522473	 -0.879546
H	 4.155805	 -0.904274	 -0.001389
H	 3.586173	 0.521118	 0.879272

9 5 3 6 F
