%nprocshared=4
%mem=2GB
#HF/cc-pVTZ nosymm scf=tight opt=ModRedundant

Mol

0 1
H	 3.488417	 -4.737636	 3.123792
O	 2.724964	 -5.183916	 2.807874
C	 1.600468	 -4.349886	 2.903650
C	 1.590554	 -3.225172	 1.879147
H	 0.743295	 -4.990494	 2.745989
H	 1.516138	 -3.940510	 3.908513
C	 1.906947	 -3.672344	 0.453741
H	 0.617480	 -2.743856	 1.904045
H	 2.318949	 -2.481194	 2.192733
C	 3.353001	 -4.137167	 0.287292
H	 1.709300	 -2.854317	 -0.230926
H	 1.237122	 -4.483659	 0.173760
C	 3.705687	 -4.666339	 -1.104054
H	 4.022390	 -3.318488	 0.540093
H	 3.548767	 -4.921966	 1.012713
C	 3.009841	 -5.968591	 -1.496077
H	 3.448158	 -3.903916	 -1.834066
H	 4.782992	 -4.798927	 -1.174692
C	 3.483501	 -7.168232	 -0.679428
H	 3.184404	 -6.163774	 -2.551965
H	 1.935064	 -5.867932	 -1.378925
C	 4.787405	 -7.768073	 -1.195101
H	 3.610487	 -6.868801	 0.357294
H	 2.710250	 -7.931867	 -0.682378
H	 5.589371	 -7.037552	 -1.174452
H	 5.096164	 -8.614511	 -0.592342
H	 4.682460	 -8.112344	 -2.218729

20 16 19 22 F
