%nprocshared=4
%mem=2GB
#HF/6-31G* nosymm scf=tight opt=ModRedundant

Mol

0 1
H	 -0.639012	 4.415861	 1.078611
O	 0.042451	 3.813811	 0.815842
C	 -0.472249	 2.507760	 0.772192
C	 0.645275	 1.571400	 0.347789
H	 -0.854422	 2.213759	 1.748826
H	 -1.299266	 2.445262	 0.066163
C	 0.198102	 0.111031	 0.262842
H	 1.463087	 1.671981	 1.056164
H	 1.023382	 1.904523	 -0.614781
C	 1.331804	 -0.827780	 -0.158768
H	 -0.199092	 -0.197731	 1.226728
H	 -0.621287	 0.022526	 -0.449398
C	 2.723619	 -0.410569	 0.329459
H	 1.342964	 -0.912588	 -1.244120
H	 1.116806	 -1.824343	 0.220779
C	 3.243875	 0.895854	 -0.272975
H	 3.424222	 -1.207124	 0.091250
H	 2.714788	 -0.329854	 1.414619
H	 3.251977	 0.848779	 -1.358681
H	 2.637085	 1.747371	 0.016682
H	 4.259473	 1.094070	 0.055697

4 7 10 14 F
