%nprocshared=4
%mem=2GB
#HF/cc-pVTZ nosymm scf=tight opt=ModRedundant

Mol

0 1
H	 -3.190329	 1.837307	 0.197325
C	 -3.235898	 0.960539	 -0.463043
C	 -2.224646	 0.953184	 -1.577138
O	 -4.045061	 0.119661	 -0.274662
C	 -0.794329	 1.184840	 -1.080950
H	 -2.313492	 0.019256	 -2.116785
H	 -2.502817	 1.758107	 -2.253913
C	 -0.247837	 0.040196	 -0.230469
H	 -0.152186	 1.332086	 -1.942524
H	 -0.755807	 2.111866	 -0.514087
C	 1.181757	 0.280428	 0.247371
H	 -0.286554	 -0.880084	 -0.807265
H	 -0.891637	 -0.118334	 0.630819
C	 2.151032	 -0.811012	 -0.202643
H	 1.515939	 1.247397	 -0.115449
H	 1.191514	 0.341223	 1.333422
C	 3.580021	 -0.656538	 0.320835
H	 2.170545	 -0.847575	 -1.289412
H	 1.766632	 -1.772905	 0.124928
C	 4.327657	 0.562694	 -0.213579
H	 4.138806	 -1.549270	 0.057813
H	 3.561991	 -0.620783	 1.406976
H	 4.355973	 0.557257	 -1.298551
H	 3.867136	 1.491650	 0.100501
H	 5.351524	 0.571613	 0.142204

12 8 11 14 F
