%nprocshared=1
%mem=2GB
#HF/6-31G* nosymm scf=tight opt=ModRedundant

Mol

0 1
H	 -1.370056	 1.308700	 -4.559038
C	 -0.840100	 1.111490	 -3.644140
C	 -0.954531	 1.988659	 -2.576138
C	 -0.045035	 -0.018668	 -3.536680
H	 -1.571471	 2.864777	 -2.660798
C	 -0.272809	 1.734413	 -1.400087
H	 0.042457	 -0.697491	 -4.365626
C	 0.638299	 -0.275200	 -2.360406
H	 -0.349574	 2.402106	 -0.563448
C	 0.525694	 0.601984	 -1.288198
H	 1.254673	 -1.148549	 -2.272849
C	 1.239129	 0.373821	 0.000060
O	 1.970282	 -0.730723	 0.000018
O	 1.166538	 1.102862	 0.939256
C	 3.377318	 -0.566646	 -0.000065
H	 3.695437	 -0.028981	 -0.881264
H	 3.789299	 -1.563704	 0.000236
H	 3.695516	 -0.028316	 0.880770

10 12 13 15 F
