%nprocshared=4
%mem=2GB
#HF/6-31G* nosymm scf=tight opt=ModRedundant

Mol

0 1
O	 3.225979	 0.970355	 -0.599647
C	 2.701189	 0.057885	 -0.047330
C	 1.245376	 -0.013843	 0.345420
O	 3.347903	 -1.046386	 0.304773
C	 0.455112	 1.231400	 -0.050772
H	 0.838542	 -0.913825	 -0.103701
H	 1.208210	 -0.175333	 1.419774
C	 -0.998893	 1.219485	 0.433193
H	 0.482531	 1.345121	 -1.130325
H	 0.957290	 2.103070	 0.354729
C	 -1.883438	 0.145884	 -0.207175
H	 -1.431207	 2.195402	 0.224832
H	 -1.019646	 1.105716	 1.516076
C	 -2.792157	 0.701207	 -1.305740
H	 -1.251133	 -0.636135	 -0.624855
H	 -2.500341	 -0.332143	 0.550382
C	 -3.684405	 -0.361794	 -1.949210
H	 -2.181141	 1.170040	 -2.075214
H	 -3.417174	 1.490645	 -0.891202
C	 -4.585988	 0.200232	 -3.047834
H	 -3.061480	 -1.151934	 -2.363077
H	 -4.299047	 -0.828537	 -1.182303
H	 -5.205947	 -0.576767	 -3.484333
H	 -3.999519	 0.643579	 -3.847642
H	 -5.246137	 0.969876	 -2.657803
C	 4.728119	 -1.109107	 -0.004993
H	 4.882018	 -1.033965	 -1.071845
H	 5.068212	 -2.067527	 0.355250
H	 5.265056	 -0.311663	 0.488280

15 11 8 5 F
