%nprocshared=1
%mem=2GB
#HF/6-31G* nosymm scf=tight 

Mol

0 1
O	 -2.634604	 0.617311	 -0.139667
C	 -2.112323	 -0.300239	 0.416894
C	 -0.885648	 -0.972937	 -0.173912
C	 -2.620084	 -0.816541	 1.744669
C	 0.379448	 -0.143569	 0.099626
H	 -1.039521	 -1.055856	 -1.244309
H	 -0.767419	 -1.974594	 0.229489
C	 1.631333	 -0.777471	 -0.511575
H	 0.223057	 0.852834	 -0.298001
H	 0.521073	 -0.034753	 1.173800
C	 2.915987	 -0.544314	 0.291766
H	 1.766672	 -0.399098	 -1.523130
H	 1.471257	 -1.849544	 -0.605828
C	 3.373361	 0.914346	 0.347591
H	 3.708709	 -1.142521	 -0.150311
H	 2.780642	 -0.921148	 1.303579
H	 3.506512	 1.320010	 -0.651625
H	 4.322697	 0.999599	 0.867103
H	 2.660624	 1.545032	 0.868198
H	 -3.006678	 -1.824747	 1.620856
H	 -3.406158	 -0.173758	 2.115752
H	 -1.813552	 -0.869914	 2.470246

6 3 2 1 F
6 3 5 8 F
12 8 11 15 F
