%nprocshared=1
%mem=2GB
#HF/6-31G* nosymm scf=tight 

Mol

0 1
O	 -0.988096	 -1.408613	 0.050699
C	 -0.676749	 -0.249230	 -0.009274
C	 -1.746085	 0.827156	 -0.009539
N	 0.623947	 0.147590	 -0.102813
H	 -1.701500	 1.431508	 -0.908902
H	 -2.703425	 0.330732	 0.036390
H	 -1.647323	 1.487769	 0.845106
C	 1.420582	 0.207473	 1.107006
C	 1.179506	 0.839752	 -1.244965
H	 2.429392	 -0.127398	 0.892109
H	 0.984204	 -0.430673	 1.855528
H	 1.472028	 1.221957	 1.496360
H	 2.224089	 0.571074	 -1.348391
H	 0.679412	 0.562272	 -2.159211
H	 1.120834	 1.920867	 -1.132884

2 4 8 10 F
