%nprocshared=1
%mem=2GB
#HF/6-31G* nosymm scf=tight 

Mol

0 1
H	 3.893188	 0.355400	 -0.101367
N	 3.092854	 -0.246221	 -0.068770
C	 1.865559	 0.531981	 0.018834
H	 3.199514	 -0.826043	 0.741946
C	 0.645745	 -0.382037	 -0.029944
H	 1.841966	 1.207024	 -0.831236
H	 1.815756	 1.155410	 0.915079
C	 -0.679275	 0.379305	 0.025956
H	 0.698998	 -0.976915	 -0.937203
H	 0.693479	 -1.083846	 0.802235
C	 -1.611769	 -0.114457	 1.133669
H	 -1.186731	 0.291205	 -0.933510
H	 -0.483902	 1.440828	 0.170334
C	 -2.936221	 0.646387	 1.183223
H	 -1.809433	 -1.174510	 0.990740
H	 -1.108318	 -0.025185	 2.093994
H	 -3.480072	 0.548022	 0.247880
H	 -3.575184	 0.273266	 1.977648
H	 -2.773600	 1.705986	 1.359845

6 3 5 9 F
12 8 11 15 F
1 2 3 6 F
