%nprocshared=4
%mem=2GB
#HF/cc-pVTZ nosymm scf=tight opt=ModRedundant

Mol

0 1
H	 3.293994	 -0.427963	 0.034615
C	 2.236031	 -0.247373	 0.026401
C	 1.463525	 -0.726038	 -1.021190
C	 1.652406	 0.459763	 1.058320
H	 1.924359	 -1.274744	 -1.819530
C	 0.105977	 -0.496562	 -1.035571
H	 2.252422	 0.828745	 1.867214
C	 0.288891	 0.689429	 1.042478
H	 -0.507753	 -0.858335	 -1.836266
C	 -0.486398	 0.214248	 0.000000
H	 -0.171892	 1.239024	 1.842352
C	 -1.946525	 0.470130	 0.000000
O	 -2.779618	 -0.371226	 0.000000
H	 -2.227127	 1.528393	 0.000000

8 10 12 14 F
