%nprocshared=4
%mem=2GB
#HF/cc-pVTZ nosymm scf=tight opt=ModRedundant

Mol

0 1
H	 -3.436473	 1.252944	 -1.023892
O	 -3.458596	 0.315260	 -0.960865
C	 -3.176635	 -0.080824	 0.355601
C	 -1.763371	 0.265266	 0.799691
H	 -3.321825	 -1.153438	 0.379502
H	 -3.895468	 0.357385	 1.043382
C	 -1.104424	 1.360041	 -0.034322
H	 -1.785157	 0.563824	 1.846712
H	 -1.164354	 -0.641171	 0.755650
C	 0.299859	 1.717830	 0.445208
H	 -1.730329	 2.245459	 -0.020520
H	 -1.059138	 1.035437	 -1.071186
C	 0.955670	 2.810530	 -0.396793
H	 0.248304	 2.030639	 1.483660
H	 0.925891	 0.828141	 0.425319
C	 2.395409	 3.147922	 -0.005426
H	 0.350800	 3.713017	 -0.346810
H	 0.946481	 2.498559	 -1.437567
C	 2.549346	 3.786236	 1.372979
H	 2.802961	 3.825784	 -0.749188
H	 3.000781	 2.246508	 -0.054393
H	 1.949928	 4.687509	 1.453492
H	 3.582037	 4.060293	 1.556508
H	 2.245501	 3.115186	 2.167319

7 4 3 2 F
