%nprocshared=4
%mem=2GB
#HF/cc-pVTZ nosymm scf=tight opt=ModRedundant

Mol

0 1
O	 -0.909866	 1.106407	 -2.495308
C	 -1.372685	 0.787621	 -1.448596
C	 -0.881910	 -0.448129	 -0.720509
C	 -2.455379	 1.601513	 -0.780675
C	 0.376695	 -0.140025	 0.100361
H	 -0.654311	 -1.199146	 -1.466353
H	 -1.659730	 -0.836263	 -0.071499
C	 1.630207	 -0.772146	 -0.501001
H	 0.486632	 0.935267	 0.162725
H	 0.248225	 -0.501310	 1.117842
C	 2.907848	 -0.545876	 0.309149
H	 1.772784	 -0.391628	 -1.509394
H	 1.468529	 -1.842059	 -0.599744
C	 3.373802	 0.906639	 0.372125
H	 3.699140	 -1.146831	 -0.127906
H	 2.764321	 -0.923458	 1.318191
H	 3.519798	 1.311927	 -0.623875
H	 4.316899	 0.983758	 0.900700
H	 2.661122	 1.540651	 0.885346
H	 -3.377511	 1.029162	 -0.771399
H	 -2.610298	 2.525397	 -1.316407
H	 -2.196841	 1.808765	 0.251698

6 3 5 8 F
