%nprocshared=1
%mem=2GB
#HF/6-31G* nosymm scf=tight opt=ModRedundant

Mol

0 1
O	 -0.098474	 0.545707	 0.965154
C	 0.486307	 0.169203	 0.000779
C	 1.608116	 -0.841643	 0.000302
O	 0.224931	 0.598982	 -1.225834
C	 2.990107	 -0.200498	 -0.000684
H	 1.468623	 -1.481519	 -0.865924
H	 1.469683	 -1.481289	 0.866878
H	 3.129736	 0.423364	 -0.875135
H	 3.757882	 -0.966877	 -0.001197
H	 3.130964	 0.423383	 0.873533
C	 -0.813924	 1.560683	 -1.378521
C	 -0.915850	 1.888362	 -2.853156
H	 -0.573451	 2.435753	 -0.790295
H	 -1.736887	 1.146442	 -0.996248
H	 0.018043	 2.297044	 -3.221914
H	 -1.699409	 2.621412	 -3.015399
H	 -1.151822	 1.000739	 -3.429089

4 2 3 6 F
