%nprocshared=1
%mem=2GB
#HF/6-31G* nosymm scf=tight 

Mol

0 1
H	 -3.417878	 0.329358	 -0.381068
C	 -3.032894	 0.674307	 -1.348756
C	 -2.084600	 1.844010	 -1.277020
O	 -3.368772	 0.133795	 -2.352142
C	 -0.930889	 1.606897	 -0.292650
H	 -1.719715	 2.050382	 -2.276509
H	 -2.664151	 2.705921	 -0.948562
C	 0.029978	 0.499864	 -0.733684
H	 -0.381433	 2.536354	 -0.176493
H	 -1.336965	 1.370728	 0.689736
C	 1.180775	 0.282413	 0.250794
H	 0.432338	 0.747461	 -1.713811
H	 -0.515296	 -0.433610	 -0.859553
C	 2.148627	 -0.814315	 -0.201312
H	 1.715135	 1.220169	 0.380430
H	 0.775219	 0.023061	 1.227853
C	 3.580890	 -0.659131	 0.322722
H	 2.166869	 -0.852443	 -1.289387
H	 1.762857	 -1.776509	 0.128956
C	 4.324889	 0.564933	 -0.213704
H	 4.142010	 -1.551473	 0.056605
H	 3.564836	 -0.624694	 1.410140
H	 4.342616	 0.565491	 -1.300421
H	 3.866655	 1.493402	 0.110242
H	 5.353900	 0.572371	 0.132816

6 3 5 8 F
6 3 2 4 F
3 5 8 12 F
12 8 11 14 F
20 17 14 18 F
