%nprocshared=4
%mem=2GB
#HF/cc-pVTZ nosymm scf=tight opt=ModRedundant

Mol

0 1
H	 1.967149	 -0.381576	 0.499879
C	 1.126156	 -0.420253	 -0.176838
O	 -0.000000	 0.000000	 0.518769
H	 1.332181	 0.224648	 -1.028608
H	 1.013899	 -1.440494	 -0.537894
C	 -1.165153	 0.000000	 -0.236961
H	 -1.229451	 0.882440	 -0.870223
H	 -2.002557	 0.000000	 0.445289
H	 -1.229451	 -0.882440	 -0.870223

2 3 6 7 F
