%nprocshared=1
%mem=2GB
#HF/6-31G* nosymm scf=tight 

Mol

0 1
O	 -2.651064	 -0.329227	 0.808312
C	 -1.687179	 -0.497065	 1.491826
C	 -0.436870	 -1.148959	 0.927853
C	 -1.648145	 -0.044073	 2.934272
C	 0.379448	 -0.143569	 0.099626
H	 -0.751866	 -1.969704	 0.292668
H	 0.175921	 -1.555736	 1.727257
C	 1.631333	 -0.777471	 -0.511575
H	 -0.263591	 0.256410	 -0.676197
H	 0.673345	 0.695733	 0.728071
C	 2.915987	 -0.544314	 0.291766
H	 1.766672	 -0.399098	 -1.523130
H	 1.471257	 -1.849544	 -0.605828
C	 3.373361	 0.914346	 0.347591
H	 3.708709	 -1.142521	 -0.150311
H	 2.780642	 -0.921148	 1.303579
H	 3.506512	 1.320010	 -0.651625
H	 4.322697	 0.999599	 0.867103
H	 2.660624	 1.545032	 0.868198
H	 -1.583449	 -0.910284	 3.587538
H	 -2.541252	 0.517574	 3.170276
H	 -0.768643	 0.564965	 3.122296

6 3 2 1 F
6 3 5 8 F
12 8 11 15 F
