%nprocshared=1
%mem=2GB
#HF/6-31G* nosymm scf=tight 

Mol

0 1
O	 0.625848	 1.349995	 -0.000749
C	 0.486307	 0.169203	 0.000779
C	 1.608116	 -0.841643	 0.000302
O	 -0.698257	 -0.426125	 0.001050
C	 2.990107	 -0.200498	 -0.000684
H	 1.468623	 -1.481519	 -0.865924
H	 1.469683	 -1.481289	 0.866878
H	 3.129736	 0.423364	 -0.875135
H	 3.757882	 -0.966877	 -0.001197
H	 3.130964	 0.423383	 0.873533
C	 -1.853103	 0.406780	 0.001512
C	 -3.066105	 -0.499275	 -0.000169
H	 -1.828720	 1.043693	 -0.872176
H	 -1.829545	 1.041765	 0.876629
H	 -3.072133	 -1.132482	 -0.880039
H	 -3.972708	 0.097147	 0.000007
H	 -3.073093	 -1.134433	 0.878343

2 4 11 13 F
4 2 3 6 F
