%nprocshared=4
%mem=2GB
#HF/cc-pVTZ nosymm scf=tight opt=ModRedundant

Mol

0 1
H	 2.614283	 2.028610	 0.296620
O	 3.358864	 1.662087	 -0.142800
C	 3.565468	 0.338079	 0.273842
C	 4.999022	 0.051562	 0.695168
H	 2.903723	 0.186754	 1.115968
H	 3.259188	 -0.357137	 -0.505464
C	 6.017328	 0.148779	 -0.438608
H	 5.269630	 0.740220	 1.489950
H	 5.028659	 -0.948777	 1.120424
C	 7.439633	 -0.177348	 0.014745
H	 5.992273	 1.148878	 -0.858341
H	 5.732589	 -0.533374	 -1.237907
C	 8.490542	 -0.167585	 -1.096897
H	 7.734936	 0.521291	 0.793800
H	 7.437580	 -1.160874	 0.476418
C	 8.769780	 1.203198	 -1.710676
H	 9.419094	 -0.560057	 -0.691576
H	 8.188986	 -0.858115	 -1.881363
C	 9.893859	 1.177550	 -2.743245
H	 9.027432	 1.903820	 -0.919340
H	 7.871600	 1.592115	 -2.180803
C	 10.172730	 2.543850	 -3.360778
H	 10.800516	 0.801580	 -2.277202
H	 9.641828	 0.471723	 -3.530233
H	 10.459138	 3.264997	 -2.602388
H	 10.976500	 2.490695	 -4.086199
H	 9.295150	 2.931048	 -3.868007

4 3 2 1 F
