%nprocshared=4
%mem=2GB
#HF/cc-pVTZ nosymm scf=tight opt=ModRedundant

Mol

0 1
H	 -0.000342	 -0.223902	 -3.352295
C	 -0.027146	 0.371068	 -2.446756
C	 0.024493	 -0.518541	 -1.216015
H	 -0.932586	 0.964979	 -2.449855
H	 0.819708	 1.049865	 -2.473332
N	 -0.042516	 0.263377	 0.000000
H	 -0.822211	 -1.197105	 -1.225584
H	 0.921114	 -1.142847	 -1.255206
C	 0.024493	 -0.518541	 1.216015
H	 0.682568	 0.950412	 0.000000
C	 1.194522	 -1.487469	 1.184365
H	 0.145657	 0.166298	 2.048940
H	 -0.900643	 -1.070563	 1.402074
H	 2.127027	 -0.954421	 1.047047
H	 1.251156	 -2.051782	 2.107973
H	 1.090851	 -2.197909	 0.370017

12 9 6 3 F
