%nprocshared=4
%mem=2GB
#HF/cc-pVTZ nosymm scf=tight opt=ModRedundant

Mol

0 1
O	 -1.278239	 1.034789	 -0.784693
C	 -1.204115	 0.062668	 -0.112312
C	 -2.386398	 -0.667698	 0.460323
O	 -0.068058	 -0.518372	 0.226882
H	 -2.382952	 -1.693172	 0.114333
H	 -3.296656	 -0.175702	 0.158400
H	 -2.312537	 -0.685191	 1.540100
C	 0.588315	 -1.378193	 -0.710500
C	 1.403509	 -2.357101	 0.110664
C	 1.434827	 -0.552478	 -1.662455
H	 -0.172518	 -1.904344	 -1.266725
H	 0.764987	 -2.920792	 0.778714
H	 1.915274	 -3.053444	 -0.542723
H	 2.144922	 -1.836114	 0.704646
H	 1.942181	 -1.202971	 -2.365271
H	 0.819771	 0.136885	 -2.223823
H	 2.183432	 0.009247	 -1.115335

8 4 2 1 F
