%nprocshared=1
%mem=2GB
#HF/6-31G* nosymm scf=tight 

Mol

0 1
H	 -0.483287	 6.967198	 2.070064
C	 -1.428272	 6.436723	 2.005852
C	 -1.259531	 5.090966	 1.301835
H	 -1.801901	 6.303094	 3.016736
H	 -2.130045	 7.074069	 1.474717
C	 -2.575983	 4.319055	 1.188164
H	 -0.534461	 4.491861	 1.843083
H	 -0.851606	 5.255054	 0.305660
C	 -2.441801	 2.975302	 0.471512
H	 -2.985712	 4.151062	 2.177884
H	 -3.297579	 4.925357	 0.645266
C	 -1.701888	 1.911048	 1.268465
H	 -3.430662	 2.571780	 0.259162
H	 -1.960250	 3.097286	 -0.496168
C	 -1.181045	 0.701995	 0.511084
O	 -1.548630	 2.007054	 2.449016
C	 -2.285934	 -0.139295	 -0.145128
H	 -0.623278	 0.100860	 1.219072
H	 -0.487534	 1.045637	 -0.254186
C	 -3.651768	 0.085446	 0.506485
H	 -2.346596	 0.110469	 -1.202272
H	 -2.034737	 -1.195320	 -0.088721
C	 -4.759797	 -0.746382	 -0.137905
H	 -3.908762	 1.140117	 0.445781
H	 -3.588286	 -0.154158	 1.565709
H	 -4.868882	 -0.505166	 -1.191300
H	 -4.548009	 -1.809175	 -0.062213
H	 -5.715422	 -0.564821	 0.343442

10 6 3 2 F
16 12 15 17 F
