%nprocshared=4
%mem=2GB
#HF/cc-pVTZ nosymm scf=tight opt=ModRedundant

Mol

0 1
O	 3.042008	 -0.988224	 0.050560
C	 2.574127	 -2.072921	 -0.023620
C	 3.300766	 -3.312667	 -0.478981
O	 1.317782	 -2.342573	 0.292610
C	 4.160412	 -3.091437	 -1.717255
H	 3.884649	 -3.661842	 0.364054
H	 2.549562	 -4.075911	 -0.656408
C	 5.161135	 -1.943405	 -1.577917
H	 3.517514	 -2.916352	 -2.572882
H	 4.698670	 -4.006568	 -1.931320
C	 5.967549	 -1.941286	 -0.280189
H	 4.611833	 -1.009127	 -1.645414
H	 5.842928	 -1.953134	 -2.425469
C	 6.575392	 -3.302694	 0.046742
H	 6.762344	 -1.202745	 -0.355878
H	 5.339998	 -1.630001	 0.549761
C	 5.537335	 -4.359643	 0.412894
H	 7.279509	 -3.193411	 0.868092
H	 7.155046	 -3.651080	 -0.805017
C	 6.152354	 -5.716328	 0.739906
H	 4.957472	 -4.013032	 1.263976
H	 4.834420	 -4.472092	 -0.408156
H	 5.389262	 -6.442706	 0.994954
H	 6.834319	 -5.644356	 1.580651
H	 6.711098	 -6.106500	 -0.104356
C	 0.824678	 -3.623490	 -0.043565
H	 -0.139967	 -3.792406	 0.411591
H	 1.544729	 -4.329140	 0.337866
H	 0.731980	 -3.727573	 -1.114467

6 3 2 1 F
