%nprocshared=4
%mem=2GB
#HF/cc-pVTZ nosymm scf=tight opt=ModRedundant

Mol

0 1
H	 0.984828	 2.693481	 2.391218
O	 1.658602	 2.387465	 1.810611
C	 1.183106	 1.480509	 0.938880
C	 2.075728	 0.945167	 0.021409
C	 -0.135617	 1.078890	 0.933414
H	 3.096655	 1.271351	 0.043055
C	 1.645891	 0.012932	 -0.894850
H	 -0.845518	 1.475108	 1.629367
C	 -0.532034	 0.141680	 0.000000
H	 2.342830	 -0.395319	 -1.600083
C	 0.326200	 -0.406263	 -0.920041
N	 -1.937041	 -0.281114	 0.000000
H	 -0.021665	 -1.128959	 -1.625324
O	 -2.159542	 -1.446261	 0.000000
O	 -2.764978	 0.565773	 0.000000

11 9 12 14 F
