%nprocshared=4
%mem=2GB
#HF/cc-pVTZ nosymm scf=tight opt=ModRedundant

Mol

0 1
H	 -3.436473	 1.252944	 -1.023892
O	 -3.458596	 0.315260	 -0.960865
C	 -3.176635	 -0.080824	 0.355601
C	 -1.763371	 0.265266	 0.799691
H	 -3.321825	 -1.153438	 0.379502
H	 -3.895468	 0.357385	 1.043382
C	 -0.673390	 -0.426948	 -0.013392
H	 -1.631049	 1.344913	 0.747560
H	 -1.664587	 -0.001624	 1.849167
C	 0.737842	 -0.043159	 0.423759
H	 -0.806103	 -0.190518	 -1.063345
H	 -0.797221	 -1.503753	 0.074146
C	 0.831070	 1.390953	 0.941137
H	 1.069642	 -0.736365	 1.190743
H	 1.421205	 -0.165249	 -0.414075
C	 0.593223	 2.472707	 -0.113891
H	 1.806376	 1.544708	 1.397193
H	 0.102355	 1.520497	 1.736632
C	 1.658174	 2.544782	 -1.205600
H	 0.543831	 3.434852	 0.386723
H	 -0.381035	 2.319664	 -0.570859
H	 2.644760	 2.691571	 -0.777607
H	 1.464347	 3.373110	 -1.877571
H	 1.688312	 1.641923	 -1.803548

13 10 7 11 F
