%nprocshared=1
%mem=2GB
#HF/6-31G* nosymm scf=tight opt=ModRedundant

Mol

0 1
H	 -3.161837	 0.500524	 -0.000234
C	 -2.367097	 -0.232926	 -0.000000
O	 -1.158440	 0.455814	 -0.000122
H	 -2.468853	 -0.861886	 -0.882833
H	 -2.468942	 -0.861421	 0.883154
C	 -0.029776	 -0.365156	 0.000148
C	 1.004401	 0.223587	 0.943823
H	 0.378467	 -0.442411	 -1.008450
H	 -0.299436	 -1.373937	 0.315665
C	 2.280951	 -0.613791	 1.007834
H	 1.234123	 1.232880	 0.616383
H	 0.561042	 0.307844	 1.931261
H	 2.754210	 -0.690267	 0.032846
H	 3.000635	 -0.171203	 1.688288
H	 2.076256	 -1.622245	 1.356438

8 6 3 2 F
