%nprocshared=4
%mem=2GB
#HF/cc-pVTZ nosymm scf=tight opt=ModRedundant

Mol

0 1
O	 -0.694481	 1.313155	 -0.204815
C	 -0.862519	 0.151932	 -0.046791
C	 -2.171428	 -0.477048	 0.339095
O	 0.085519	 -0.757083	 -0.192238
H	 -2.467997	 -1.191667	 -0.417688
H	 -2.923379	 0.287970	 0.444097
H	 -2.053854	 -1.015120	 1.270901
C	 1.392036	 -0.330828	 -0.560749
C	 2.089423	 -1.353625	 -1.433352
H	 1.963724	 -0.125887	 0.330872
H	 1.236998	 0.592191	 -1.099033
H	 3.051951	 -0.966494	 -1.748189
H	 2.254463	 -2.275175	 -0.892159
H	 1.501807	 -1.565832	 -2.318377

10 8 4 2 F
