%nprocshared=1
%mem=2GB
#HF/6-31G* nosymm scf=tight opt=ModRedundant

Mol

0 1
O	 1.097365	 0.401464	 0.982751
C	 1.705091	 0.115954	 0.001797
C	 1.444441	 0.658826	 -1.382117
O	 2.721346	 -0.737485	 -0.000216
C	 0.284826	 1.648762	 -1.436546
H	 2.367285	 1.113788	 -1.731521
H	 1.267938	 -0.190734	 -2.036193
C	 0.043681	 2.183121	 -2.849122
H	 0.486270	 2.473022	 -0.759638
H	 -0.614420	 1.166934	 -1.065727
C	 -1.115682	 3.178328	 -2.921910
H	 0.950117	 2.661921	 -3.216709
H	 -0.155394	 1.351647	 -3.523587
C	 -1.356925	 3.710964	 -4.333771
H	 -0.917147	 4.010841	 -2.250608
H	 -2.022066	 2.701236	 -2.555865
H	 -0.478695	 4.224531	 -4.714791
H	 -2.184470	 4.413290	 -4.352727
H	 -1.591962	 2.904388	 -5.022613
C	 4.024888	 -0.184556	 -0.001949
H	 4.179030	 0.422472	 -0.882452
H	 4.701782	 -1.024608	 -0.003642
H	 4.181981	 0.421185	 0.878906

1 2 4 20 F
