%nprocshared=1
%mem=2GB
#HF/6-31G* nosymm scf=tight 

Mol

0 1
O	 1.164204	 4.022535	 -1.274998
C	 0.226442	 4.272108	 -1.968593
C	 -1.041090	 3.436726	 -1.947717
C	 0.241601	 5.448952	 -2.922514
C	 -0.998069	 2.265877	 -0.970222
H	 -1.873619	 4.100194	 -1.717297
H	 -1.225092	 3.084909	 -2.962001
C	 -2.291064	 1.448638	 -0.977018
H	 -0.805205	 2.643531	 0.028933
H	 -0.156114	 1.626945	 -1.217258
C	 -2.259874	 0.272531	 0.000494
H	 -3.131682	 2.096199	 -0.731916
H	 -2.479290	 1.074325	 -1.982268
C	 -3.549786	 -0.549746	 -0.000374
H	 -2.072480	 0.645612	 1.005836
H	 -1.420447	 -0.375951	 -0.244108
C	 -4.809590	 0.315458	 -0.000369
H	 -3.560515	 -1.202009	 -0.871156
H	 -3.561123	 -1.202955	 0.869711
H	 -4.844746	 0.956611	 -0.876632
H	 -5.706986	 -0.295590	 -0.001609
H	 -4.845960	 0.954827	 0.877144
H	 -0.566483	 6.136188	 -2.689434
H	 1.188034	 5.966290	 -2.848622
H	 0.092263	 5.110578	 -3.943707

9 5 8 12 F
15 11 8 12 F
1 2 3 6 F
9 5 3 6 F
