%nprocshared=4
%mem=2GB
#HF/cc-pVTZ nosymm scf=tight opt=ModRedundant

Mol

0 1
H	 -1.835082	 1.385983	 0.000069
C	 -1.300516	 0.441153	 -0.000028
O	 -0.006604	 0.654344	 -0.000106
O	 -1.828920	 -0.612308	 0.000113
C	 0.852093	 -0.482521	 -0.000161
C	 0.956055	 -0.981770	 -1.421654
H	 0.437454	 -1.233402	 0.657265
H	 1.816202	 -0.192026	 0.392357
H	 -0.016744	 -1.265247	 -1.802802
H	 1.604441	 -1.849081	 -1.456592
H	 1.368913	 -0.218623	 -2.069053

7 5 3 2 F
