%nprocshared=4
%mem=2GB
#HF/6-31G* nosymm scf=tight opt=ModRedundant

Mol

0 1
H	 3.089270	 -1.380733	 0.000000
O	 2.178328	 -1.639175	 0.000000
C	 1.368216	 -0.558384	 0.000000
C	 -0.002319	 -0.655652	 0.203658
C	 1.949925	 0.679233	 -0.212960
H	 -0.453023	 -1.619754	 0.369208
C	 -0.789535	 0.483590	 0.194246
H	 3.008429	 0.755766	 -0.370400
C	 1.154664	 1.814819	 -0.220850
H	 -1.848997	 0.395776	 0.353014
C	 -0.216613	 1.724525	 -0.017825
C	 1.773155	 3.147582	 -0.449062
H	 -0.826189	 2.610732	 -0.025540
O	 2.934121	 3.329764	 -0.632131
H	 1.072977	 3.988356	 -0.439189

4 3 2 1 F
