%nprocshared=4
%mem=2GB
#HF/6-31G* nosymm scf=tight opt=ModRedundant

Mol

0 1
O	 -0.682937	 1.318834	 -0.186099
C	 -0.860635	 0.152188	 -0.042321
C	 -2.173363	 -0.477127	 0.338347
O	 0.083258	 -0.765189	 -0.202595
H	 -2.477673	 -1.180929	 -0.427595
H	 -2.923125	 0.290956	 0.455536
H	 -2.058825	 -1.029004	 1.264191
C	 0.570743	 -1.445490	 0.951678
C	 -0.320075	 -2.615666	 1.325545
H	 0.658723	 -0.743271	 1.766716
H	 1.557327	 -1.784330	 0.670007
H	 0.116372	 -3.157843	 2.158785
H	 -1.303741	 -2.272835	 1.620905
H	 -0.422047	 -3.299646	 0.489968

8 4 2 1 F
