%nprocshared=4
%mem=2GB
#HF/6-31G* nosymm scf=tight opt=ModRedundant

Mol

0 1
O	 0.625848	 1.349995	 -0.000749
C	 0.486307	 0.169203	 0.000779
C	 1.608116	 -0.841643	 0.000302
O	 -0.698257	 -0.426125	 0.001050
C	 2.990107	 -0.200498	 -0.000684
H	 1.468623	 -1.481519	 -0.865924
H	 1.469683	 -1.481289	 0.866878
H	 3.129736	 0.423364	 -0.875135
H	 3.757882	 -0.966877	 -0.001197
H	 3.130964	 0.423383	 0.873533
C	 -0.795150	 -1.698589	 -0.630494
C	 -2.229623	 -2.163905	 -0.496037
H	 -0.106684	 -2.382430	 -0.153044
H	 -0.501889	 -1.601119	 -1.666877
H	 -2.509550	 -2.251241	 0.547597
H	 -2.348648	 -3.134793	 -0.965991
H	 -2.907010	 -1.465743	 -0.974549

11 4 2 3 F
