%nprocshared=4
%mem=2GB
#HF/6-31G* nosymm scf=tight opt=ModRedundant

Mol

0 1
O	 3.225979	 0.970355	 -0.599647
C	 2.701189	 0.057885	 -0.047330
C	 1.245376	 -0.013843	 0.345420
O	 3.347903	 -1.046386	 0.304773
C	 0.455112	 1.231400	 -0.050772
H	 0.838542	 -0.913825	 -0.103701
H	 1.208210	 -0.175333	 1.419774
C	 -0.998893	 1.219485	 0.433193
H	 0.482531	 1.345121	 -1.130325
H	 0.957290	 2.103070	 0.354729
C	 -1.883438	 0.145884	 -0.207175
H	 -1.431207	 2.195402	 0.224832
H	 -1.019646	 1.105716	 1.516076
C	 -2.215259	 0.443651	 -1.670811
H	 -1.380621	 -0.817792	 -0.141437
H	 -2.812184	 0.044480	 0.349709
C	 -3.103040	 -0.619898	 -2.319532
H	 -1.290504	 0.533489	 -2.238255
H	 -2.708485	 1.412081	 -1.738404
C	 -3.426579	 -0.317010	 -3.782161
H	 -2.612117	 -1.588439	 -2.251968
H	 -4.029730	 -0.708068	 -1.756281
H	 -4.056919	 -1.088295	 -4.213899
H	 -2.521239	 -0.257072	 -4.379624
H	 -3.949216	 0.630376	 -3.880065
C	 4.728119	 -1.109107	 -0.004993
H	 4.882018	 -1.033965	 -1.071845
H	 5.068212	 -2.067527	 0.355250
H	 5.265056	 -0.311663	 0.488280

15 11 8 5 F
