%nprocshared=1
%mem=2GB
#HF/6-31G* nosymm scf=tight opt=ModRedundant

Mol

0 1
H	 -3.261111	 -0.295142	 1.469456
C	 -3.306842	 -0.277400	 0.373456
C	 -2.660244	 0.921717	 -0.272021
O	 -3.838538	 -1.161155	 -0.216482
C	 -1.929012	 1.812967	 0.741501
H	 -1.992036	 0.572379	 -1.050590
H	 -3.454497	 1.496527	 -0.746797
C	 -0.703822	 1.144249	 1.370011
H	 -1.623665	 2.726021	 0.239126
H	 -2.623634	 2.115750	 1.523536
C	 0.021443	 2.047860	 2.369158
H	 -0.015328	 0.849268	 0.580829
H	 -1.001094	 0.223940	 1.869210
C	 1.255396	 1.381843	 2.983758
H	 0.306634	 2.969337	 1.867883
H	 -0.666890	 2.331706	 3.164151
C	 1.967998	 2.218372	 4.052630
H	 1.961628	 1.132893	 2.193218
H	 0.954456	 0.436210	 3.429769
C	 2.613919	 3.502173	 3.528930
H	 2.738217	 1.603794	 4.511985
H	 1.264573	 2.464816	 4.845334
H	 3.311022	 3.287618	 2.723149
H	 1.877093	 4.203139	 3.151164
H	 3.165970	 4.004704	 4.317408

6 3 2 4 F
