%nprocshared=4
%mem=2GB
#HF/cc-pVTZ nosymm scf=tight opt=ModRedundant

Mol

0 1
H	 -2.297630	 1.018154	 1.996028
C	 -1.647066	 0.939421	 2.864043
O	 -0.374828	 0.512015	 2.508693
H	 -1.553362	 1.915231	 3.317808
H	 -2.110398	 0.263801	 3.580804
C	 -0.336449	 -0.744700	 1.916382
C	 1.072022	 -1.060087	 1.479249
H	 -0.665036	 -1.505640	 2.624175
H	 -0.996125	 -0.783267	 1.052223
O	 1.401606	 -0.295166	 0.366636
H	 1.755239	 -0.858101	 2.301348
H	 1.138111	 -2.121495	 1.240469
C	 2.714315	 -0.441627	 -0.061017
H	 2.765292	 -0.641548	 -1.128869
H	 3.305661	 0.447341	 0.150952
H	 3.143725	 -1.278506	 0.470147

7 10 13 14 F
