%nprocshared=4
%mem=2GB
#HF/cc-pVTZ nosymm scf=tight opt=ModRedundant

Mol

0 1
H	 -2.644180	 -0.653737	 1.272255
C	 -2.092774	 -0.380414	 0.391915
O	 -0.808934	 -0.154049	 0.752536
F	 -2.163230	 -1.351640	 -0.507133
F	 -2.627232	 0.691260	 -0.169301
C	 0.040662	 0.423903	 -0.165864
C	 1.361383	 -0.340282	 -0.111148
Cl	 0.313013	 2.137436	 0.201786
H	 -0.337302	 0.367299	 -1.171640
F	 2.212066	 0.152665	 -0.975072
F	 1.142748	 -1.594125	 -0.429567
F	 1.903137	 -0.307845	 1.075318

6 3 2 4 F
