%nprocshared=1
%mem=2GB
#HF/6-31G* nosymm scf=tight opt=ModRedundant

Mol

0 1
H	 -2.646374	 -0.642757	 1.268656
C	 -2.083525	 -0.384536	 0.393091
O	 -0.807605	 -0.127164	 0.768327
F	 -2.118945	 -1.383102	 -0.486752
F	 -2.621877	 0.670592	 -0.209486
C	 -0.236951	 -0.950939	 1.721446
C	 0.440082	 -0.046477	 2.743078
Cl	 0.940469	 -2.049142	 0.983309
H	 -0.967700	 -1.552170	 2.233599
F	 0.997855	 -0.764725	 3.694471
F	 -0.472894	 0.726892	 3.296081
F	 1.355883	 0.716667	 2.198197

6 3 2 4 F
