%nprocshared=1
%mem=2GB
#HF/6-31G* nosymm scf=tight opt=ModRedundant

Mol

0 1
H	 3.893188	 0.355400	 -0.101367
N	 3.092854	 -0.246221	 -0.068770
C	 1.865559	 0.531981	 0.018834
H	 3.199514	 -0.826043	 0.741946
C	 0.645745	 -0.382037	 -0.029944
H	 1.841966	 1.207024	 -0.831236
H	 1.815756	 1.155410	 0.915079
C	 -0.679275	 0.379305	 0.025956
H	 0.698998	 -0.976915	 -0.937203
H	 0.693479	 -1.083846	 0.802235
C	 -0.503064	 1.877951	 0.277722
H	 -1.305344	 -0.043266	 0.810380
H	 -1.222054	 0.235273	 -0.907046
C	 -1.829825	 2.634072	 0.336871
H	 0.037838	 2.024331	 1.210038
H	 0.120030	 2.303505	 -0.506059
H	 -2.462461	 2.253975	 1.134125
H	 -1.671890	 3.692961	 0.516911
H	 -2.379435	 2.535519	 -0.595120

12 8 5 9 F
