%nprocshared=4
%mem=2GB
#HF/cc-pVTZ nosymm scf=tight 
prop=(read,field)

Mol

0 1
H	 2.453876	 -0.658816	 -0.000766
C	 1.738023	 0.145787	 -0.000181
O	 0.462225	 -0.453381	 -0.000137
H	 1.883912	 0.752229	 -0.885146
H	 1.884386	 0.751370	 0.885305
C	 -0.590669	 0.341337	 0.000062
O	 -1.694002	 -0.053925	 0.000252
H	 -0.340530	 1.403777	 0.000200

@grid.dat /N
