%nprocshared=1
%mem=2GB
#HF/6-31G* nosymm scf=tight 

Mol

0 1
O	 1.214711	 1.306902	 -0.000018
C	 1.122059	 0.121804	 -0.000188
C	 -0.170150	 -0.657997	 -0.000612
O	 2.172624	 -0.688929	 0.000216
C	 -1.412532	 0.227344	 -0.000452
H	 -0.153702	 -1.313099	 -0.867402
H	 -0.153924	 -1.313811	 0.865644
C	 -2.672397	 -0.538718	 -0.406966
H	 -1.256675	 1.063717	 -0.674762
H	 -1.545975	 0.657394	 0.987350
C	 -3.922165	 0.340533	 -0.408231
H	 -2.533039	 -0.968197	 -1.397018
H	 -2.822391	 -1.377098	 0.270303
H	 -3.816889	 1.169501	 -1.102049
H	 -4.800646	 -0.226389	 -0.700031
H	 -4.108651	 0.757167	 0.577304
C	 3.452279	 -0.082609	 0.000533
H	 3.583069	 0.529321	 -0.880332
H	 4.163299	 -0.894027	 0.001117
H	 3.582335	 0.529955	 0.881077

9 5 8 12 F
1 2 3 6 F
1 2 4 17 F
