%nprocshared=4
%mem=2GB
#HF/cc-pVTZ nosymm scf=tight opt=ModRedundant

Mol

0 1
O	 0.623971	 1.347241	 -0.000777
C	 0.485107	 0.171416	 -0.000134
C	 1.606966	 -0.836201	 0.000174
O	 -0.695554	 -0.422406	 0.000602
C	 2.988788	 -0.202529	 -0.000115
H	 1.465110	 -1.474645	 -0.864821
H	 1.465209	 -1.474077	 0.865596
H	 3.131767	 0.419673	 -0.873407
H	 3.750876	 -0.972315	 0.000098
H	 3.131883	 0.420264	 0.872742
C	 -1.843858	 0.385060	 -0.217761
C	 -3.056448	 -0.515009	 -0.173172
H	 -1.751246	 0.879041	 -1.174710
H	 -1.888484	 1.149216	 0.545389
H	 -3.000178	 -1.276496	 -0.940859
H	 -3.953026	 0.071164	 -0.336819
H	 -3.138253	 -1.004736	 0.789038

11 4 2 3 F
