%nprocshared=4
%mem=2GB
#HF/cc-pVTZ nosymm scf=tight opt=ModRedundant

Mol

0 1
O	 -0.694481	 1.313155	 -0.204815
C	 -0.862519	 0.151932	 -0.046791
C	 -2.171428	 -0.477048	 0.339095
O	 0.085519	 -0.757083	 -0.192238
H	 -2.467997	 -1.191667	 -0.417688
H	 -2.923379	 0.287970	 0.444097
H	 -2.053854	 -1.015120	 1.270901
C	 1.392036	 -0.330828	 -0.560749
C	 1.474305	 0.012946	 -2.033484
H	 2.103186	 -1.099161	 -0.300465
H	 1.577404	 0.540989	 0.048616
H	 2.462435	 0.395913	 -2.262364
H	 1.298893	 -0.861564	 -2.644914
H	 0.746613	 0.773330	 -2.290142

10 8 4 2 F
