%nprocshared=4
%mem=2GB
#HF/cc-pVTZ nosymm scf=tight opt=ModRedundant

Mol

0 1
H	 -2.644180	 -0.653737	 1.272255
C	 -2.092774	 -0.380414	 0.391915
O	 -0.808934	 -0.154049	 0.752536
F	 -2.163230	 -1.351640	 -0.507133
F	 -2.627232	 0.691260	 -0.169301
C	 0.194820	 -0.761081	 0.029147
C	 1.211959	 -1.307727	 1.028088
Cl	 0.978649	 0.388839	 -1.070323
H	 -0.163473	 -1.582111	 -0.566825
F	 2.189364	 -1.912622	 0.402145
F	 0.620928	 -2.187935	 1.800895
F	 1.715102	 -0.371370	 1.784616

6 3 2 4 F
