%nprocshared=1
%mem=2GB
#HF/6-31G* nosymm scf=tight opt=ModRedundant

Mol

0 1
H	 -3.420663	 1.227371	 -1.044276
O	 -3.452007	 0.283848	 -0.965577
C	 -3.181085	 -0.079926	 0.364119
C	 -1.765924	 0.277073	 0.805136
H	 -3.327791	 -1.152017	 0.410903
H	 -3.905698	 0.375695	 1.036898
C	 -0.677594	 -0.417312	 -0.014550
H	 -1.637766	 1.358238	 0.744969
H	 -1.659588	 0.017670	 1.857098
C	 -0.636515	 -1.931365	 0.202556
H	 0.286690	 0.014981	 0.234427
H	 -0.841928	 -0.208639	 -1.070411
C	 0.451441	 -2.620153	 -0.625700
H	 -0.482015	 -2.132920	 1.259875
H	 -1.605131	 -2.360077	 -0.051597
C	 0.474706	 -4.148627	 -0.510021
H	 1.425005	 -2.224349	 -0.340729
H	 0.311945	 -2.355640	 -1.671831
C	 0.845311	 -4.675772	 0.877486
H	 1.188502	 -4.537618	 -1.232150
H	 -0.496008	 -4.546006	 -0.799861
H	 1.806837	 -4.284542	 1.199271
H	 0.915691	 -5.759218	 0.872092
H	 0.109395	 -4.402064	 1.626269

11 7 4 3 F
