%nprocshared=4
%mem=2GB
#HF/cc-pVTZ nosymm scf=tight opt=ModRedundant

Mol

0 1
H	 -2.026459	 0.263152	 -2.656230
N	 -1.072861	 0.152978	 -2.384968
C	 -0.874283	 -1.096887	 -1.674654
H	 -0.835982	 0.922436	 -1.795206
C	 0.571570	 -1.247166	 -1.260442
H	 -1.497885	 -1.194597	 -0.786894
H	 -1.123428	 -1.917077	 -2.338932
O	 0.881195	 -0.248324	 -0.336237
H	 0.728666	 -2.229218	 -0.816520
H	 1.212958	 -1.161656	 -2.134650
C	 2.208068	 -0.234417	 0.074171
H	 2.725499	 -1.027054	 -0.446768
H	 2.688377	 0.712084	 -0.164856
H	 2.295137	 -0.403407	 1.144883

5 8 11 13 F
