%nprocshared=4
%mem=2GB
#HF/cc-pVTZ nosymm scf=tight opt=ModRedundant

Mol

0 1
H	 -2.767395	 2.160082	 1.122264
C	 -2.144672	 1.645867	 1.850744
O	 -0.840840	 1.504288	 1.395200
H	 -2.116154	 2.231018	 2.758308
H	 -2.598428	 0.681262	 2.071034
C	 -0.718530	 0.758693	 0.228682
C	 0.718529	 0.758687	 -0.228709
H	 -1.033193	 -0.270065	 0.403656
H	 -1.344591	 1.171461	 -0.559418
O	 1.401606	 -0.295166	 0.366636
H	 0.748705	 0.673477	 -1.312803
H	 1.176496	 1.708671	 0.046552
C	 2.714315	 -0.441627	 -0.061017
H	 2.765292	 -0.641548	 -1.128869
H	 3.305661	 0.447341	 0.150952
H	 3.143725	 -1.278506	 0.470147

3 6 7 11 F
