%nprocshared=4
%mem=2GB
#HF/cc-pVTZ nosymm scf=tight opt=ModRedundant

Mol

0 1
O	 -1.278239	 1.034789	 -0.784693
C	 -1.204115	 0.062668	 -0.112312
C	 -2.386398	 -0.667698	 0.460323
O	 -0.068058	 -0.518372	 0.226882
H	 -2.382952	 -1.693172	 0.114333
H	 -3.296656	 -0.175702	 0.158400
H	 -2.312537	 -0.685191	 1.540100
C	 1.169086	 0.037484	 -0.230612
C	 2.210884	 -0.337276	 0.804437
C	 1.024636	 1.537830	 -0.411455
H	 1.407341	 -0.419795	 -1.178884
H	 2.278808	 -1.412746	 0.906901
H	 3.181806	 0.040456	 0.507214
H	 1.960591	 0.083304	 1.771082
H	 1.964032	 1.962118	 -0.746141
H	 0.269272	 1.764537	 -1.150831
H	 0.751875	 2.008946	 0.526061

11 8 4 2 F
