%nprocshared=4
%mem=2GB
#HF/cc-pVTZ nosymm scf=tight opt=ModRedundant

Mol

0 1
H	 0.372786	 -3.063731	 -4.270100
O	 1.311417	 -3.054546	 -4.296892
C	 1.799065	 -1.830421	 -3.814203
C	 1.658666	 -1.673376	 -2.307448
H	 2.845903	 -1.802073	 -4.084955
H	 1.312159	 -1.000761	 -4.323160
C	 1.543396	 -0.225591	 -1.835770
H	 0.788250	 -2.234764	 -1.981291
H	 2.525451	 -2.135622	 -1.841174
C	 2.833097	 0.567600	 -2.041573
H	 1.274139	 -0.211161	 -0.784915
H	 0.733507	 0.264872	 -2.373181
C	 2.751746	 2.045363	 -1.654463
H	 3.636453	 0.093963	 -1.482543
H	 3.114928	 0.502203	 -3.088838
C	 1.830367	 2.893244	 -2.529622
H	 2.406858	 2.109849	 -0.626153
H	 3.751415	 2.473996	 -1.664018
C	 1.705672	 4.335144	 -2.044046
H	 0.842591	 2.438147	 -2.555208
H	 2.189352	 2.898925	 -3.554366
C	 0.789417	 5.185457	 -2.917738
H	 1.334301	 4.338922	 -1.022946
H	 2.692708	 4.788633	 -2.009830
H	 -0.214814	 4.775665	 -2.946538
H	 0.721154	 6.200782	 -2.544155
H	 1.154599	 5.232957	 -3.938393

8 4 3 2 F
