%nprocshared=1
%mem=2GB
#HF/6-31G* nosymm scf=tight 

Mol

0 1
H	 -2.798360	 -0.862255	 -0.071053
N	 -1.863561	 -0.715187	 0.256814
C	 -1.344686	 0.554728	 -0.219830
H	 -1.300452	 -1.461917	 -0.101532
C	 -1.216595	 1.526794	 0.934213
H	 -0.374362	 0.475526	 -0.711966
H	 -2.043448	 0.965985	 -0.941898
O	 -0.257075	 1.029169	 1.822344
H	 -0.914902	 2.508018	 0.568399
H	 -2.176979	 1.628877	 1.434689
C	 -0.098416	 1.786179	 2.979641
H	 0.662625	 1.309023	 3.582000
H	 0.220331	 2.801501	 2.750503
H	 -1.022270	 1.835462	 3.552243

8 5 3 6 F
5 8 11 13 F
11 8 5 3 F
