%nprocshared=1
%mem=2GB
#HF/6-31G* nosymm scf=tight opt=ModRedundant

Mol

0 1
O	 0.625848	 1.349995	 -0.000749
C	 0.486307	 0.169203	 0.000779
C	 1.608116	 -0.841643	 0.000302
O	 -0.698257	 -0.426125	 0.001050
C	 2.990107	 -0.200498	 -0.000684
H	 1.468623	 -1.481519	 -0.865924
H	 1.469683	 -1.481289	 0.866878
H	 3.129736	 0.423364	 -0.875135
H	 3.757882	 -0.966877	 -0.001197
H	 3.130964	 0.423383	 0.873533
C	 -0.921839	 -1.446660	 -0.966379
C	 -2.329511	 -1.965273	 -0.761899
H	 -0.185016	 -2.226876	 -0.832444
H	 -0.788940	 -1.030086	 -1.955518
H	 -2.447878	 -2.374095	 0.235102
H	 -2.542821	 -2.748669	 -1.481925
H	 -3.055204	 -1.170834	 -0.894157

11 4 2 3 F
