%nprocshared=1
%mem=2GB
#HF/6-31G* nosymm scf=tight opt=ModRedundant

Mol

0 1
O	 -0.988096	 -1.408613	 0.050699
C	 -0.676749	 -0.249230	 -0.009274
C	 -1.746085	 0.827156	 -0.009539
N	 0.623947	 0.147590	 -0.102813
H	 -1.701500	 1.431508	 -0.908902
H	 -2.703425	 0.330732	 0.036390
H	 -1.647323	 1.487769	 0.845106
C	 1.093041	 0.699912	 -1.358507
C	 1.660426	 -0.248661	 0.825056
H	 1.780879	 1.514518	 -1.160233
H	 0.254778	 1.069567	 -1.922963
H	 1.612324	 -0.050458	 -1.950716
H	 2.393269	 0.546095	 0.898161
H	 1.264482	 -0.419001	 1.813564
H	 2.175141	 -1.150416	 0.498378

8 4 2 3 F
