%nprocshared=4
%mem=2GB
#HF/cc-pVTZ nosymm scf=tight opt=ModRedundant

Mol

0 1
H	 -1.088256	 -1.364742	 0.152233
O	 -1.432053	 -0.565244	 -0.200812
C	 -0.727158	 0.534527	 0.310686
C	 0.680222	 0.664433	 -0.252229
H	 -1.306802	 1.408001	 0.044211
H	 -0.690821	 0.490158	 1.397609
C	 1.659368	 1.364058	 0.685771
H	 1.049194	 -0.326757	 -0.494374
H	 0.617829	 1.216276	 -1.186159
H	 1.793799	 0.808697	 1.607522
H	 2.635519	 1.460711	 0.226053
H	 1.315330	 2.361838	 0.940780

8 4 3 2 F
