%nprocshared=4
%mem=2GB
#HF/cc-pVTZ nosymm scf=tight opt=ModRedundant

Mol

0 1
H	 -2.644180	 -0.653737	 1.272255
C	 -2.092774	 -0.380414	 0.391915
O	 -0.808934	 -0.154049	 0.752536
F	 -2.163230	 -1.351640	 -0.507133
F	 -2.627232	 0.691260	 -0.169301
C	 0.185914	 -0.391464	 -0.171159
C	 -0.199187	 0.338459	 -1.455756
Cl	 0.366342	 -2.127180	 -0.487819
H	 1.144330	 -0.022054	 0.149186
F	 0.716979	 0.164089	 -2.374046
F	 -0.283198	 1.624030	 -1.207639
F	 -1.347245	 -0.063072	 -1.927971

6 3 2 4 F
