%nprocshared=1
%mem=2GB
#HF/6-31G* nosymm scf=tight 

Mol

0 1
O	 2.862325	 1.357334	 0.000267
C	 2.843464	 0.164689	 -0.000222
C	 1.546494	 -0.624492	 -0.000609
C	 4.124123	 -0.644674	 -0.000428
C	 0.291004	 0.242674	 0.000989
H	 1.557904	 -1.283758	 -0.867573
H	 1.558622	 -1.285963	 0.864672
C	 -0.992282	 -0.583832	 0.100127
H	 0.273493	 0.844921	 -0.901852
H	 0.343703	 0.943439	 0.828212
C	 -2.257870	 0.275246	 0.101234
H	 -1.036995	 -1.286793	 -0.730471
H	 -0.967394	 -1.186557	 1.006863
C	 -3.545753	 -0.544276	 0.200009
H	 -2.284156	 0.877674	 -0.805083
H	 -2.214670	 0.977767	 0.931653
C	 -4.805615	 0.320844	 0.200305
H	 -3.590640	 -1.246068	 -0.630230
H	 -3.521318	 -1.145762	 1.106362
H	 -4.876738	 0.909986	 -0.709642
H	 -5.701576	 -0.288258	 0.270656
H	 -4.807502	 1.010207	 1.039900
H	 4.165367	 -1.288615	 -0.874074
H	 4.976217	 0.020734	 -0.001915
H	 4.166763	 -1.286207	 0.874930

9 5 8 12 F
15 11 8 12 F
15 11 14 18 F
1 2 3 6 F
