%nprocshared=1
%mem=2GB
#HF/6-31G* nosymm scf=tight 

Mol

0 1
O	 1.367933	 2.130805	 -0.108640
C	 0.291449	 2.579603	 -0.338600
C	 -1.003031	 1.803608	 -0.333975
O	 0.084993	 3.857061	 -0.632899
C	 -0.823008	 0.326187	 0.001381
H	 -1.670225	 2.289368	 0.372852
H	 -1.462396	 1.932650	 -1.310218
C	 -2.149452	 -0.435131	 -0.000098
H	 -0.346562	 0.235419	 0.972436
H	 -0.139470	 -0.121968	 -0.712931
C	 -3.368779	 0.488503	 -0.000883
H	 -2.193746	 -1.087250	 -0.871175
H	 -2.195311	 -1.087803	 0.870418
C	 -4.693822	 -0.272754	 -0.001129
H	 -3.325798	 1.139422	 -0.871284
H	 -3.326423	 1.139959	 0.869145
H	 -4.781274	 -0.907928	 -0.878124
H	 -5.538651	 0.408946	 -0.001420
H	 -4.781694	 -0.907783	 0.875984
C	 1.222042	 4.700138	 -0.668914
H	 1.711371	 4.719587	 0.294261
H	 0.853410	 5.682190	 -0.921023
H	 1.923767	 4.360130	 -1.416900

15 11 8 12 F
1 2 3 6 F
9 5 3 6 F
1 2 4 20 F
