%nprocshared=4
%mem=2GB
#HF/cc-pVTZ nosymm scf=tight opt=ModRedundant

Mol

0 1
O	 -0.694481	 1.313155	 -0.204815
C	 -0.862519	 0.151932	 -0.046791
C	 -2.171428	 -0.477048	 0.339095
O	 0.085519	 -0.757083	 -0.192238
H	 -2.467997	 -1.191667	 -0.417688
H	 -2.923379	 0.287970	 0.444097
H	 -2.053854	 -1.015120	 1.270901
C	 0.877026	 -1.107592	 0.936984
C	 0.209735	 -2.175218	 1.778885
H	 1.077296	 -0.221856	 1.519376
H	 1.803987	 -1.470840	 0.519198
H	 0.869448	 -2.463495	 2.589519
H	 -0.713772	 -1.809325	 2.206249
H	 -0.002488	 -3.054968	 1.183407

8 4 2 1 F
