%nprocshared=1
%mem=2GB
#HF/6-31G* nosymm scf=tight opt=ModRedundant

Mol

0 1
O	 1.760332	 1.194396	 -0.495224
C	 1.705091	 0.115954	 0.001797
C	 0.502571	 -0.467649	 0.702667
O	 2.721346	 -0.737485	 -0.000216
C	 -0.697930	 0.473404	 0.732005
H	 0.258350	 -1.402049	 0.204704
H	 0.813315	 -0.740918	 1.707397
C	 -1.901366	 -0.143127	 1.446632
H	 -0.968977	 0.739028	 -0.284935
H	 -0.413869	 1.400354	 1.220249
C	 -3.115066	 0.787116	 1.484562
H	 -2.179083	 -1.074095	 0.954525
H	 -1.622515	 -0.409492	 2.465050
C	 -4.316786	 0.171021	 2.199786
H	 -3.396483	 1.052095	 0.467836
H	 -2.839472	 1.717197	 1.976634
H	 -4.638305	 -0.743788	 1.709924
H	 -5.160403	 0.854138	 2.210356
H	 -4.076692	 -0.073837	 3.230664
C	 4.024888	 -0.184556	 -0.001949
H	 4.179030	 0.422472	 -0.882452
H	 4.701782	 -1.024608	 -0.003642
H	 4.181981	 0.421185	 0.878906

1 2 4 20 F
