%nprocshared=4
%mem=2GB
#HF/cc-pVTZ nosymm scf=tight opt=ModRedundant

Mol

0 1
H	 -0.687238	 1.757697	 -4.771124
C	 -0.294615	 1.470770	 -3.814204
C	 -0.568229	 2.239782	 -2.697335
C	 0.482977	 0.333821	 -3.701596
H	 -1.171862	 3.122140	 -2.785499
C	 -0.063355	 1.870439	 -1.468033
H	 0.694589	 -0.261873	 -4.568338
C	 0.989238	 -0.037318	 -2.471371
H	 -0.265339	 2.454217	 -0.593125
C	 0.717118	 0.730742	 -1.350414
H	 1.591780	 -0.917236	 -2.380718
C	 1.238974	 0.374429	 0.000004
O	 1.968286	 -0.725612	 -0.000027
O	 1.025152	 1.009050	 0.978123
C	 3.373556	 -0.568203	 0.000011
H	 3.695416	 -0.031588	 -0.879663
H	 3.782700	 -1.565294	 -0.000152
H	 3.695405	 -0.031851	 0.879862

10 12 13 15 F
