%nprocshared=4
%mem=2GB
#HF/cc-pVTZ nosymm scf=tight opt=ModRedundant

Mol

0 1
O	 0.816747	 0.790249	 -0.930176
C	 1.121787	 0.124983	 0.000110
C	 0.395091	 0.079582	 1.319699
O	 2.167739	 -0.685178	 -0.000678
C	 -0.820392	 0.993149	 1.382316
H	 0.119154	 -0.954533	 1.498432
H	 1.115510	 0.330458	 2.091398
C	 -1.532015	 0.922168	 2.730227
H	 -1.509588	 0.727155	 0.588719
H	 -0.512307	 2.013378	 1.182915
C	 -2.753176	 1.832301	 2.803145
H	 -1.835342	 -0.102978	 2.925951
H	 -0.836456	 1.189530	 3.521399
H	 -3.483342	 1.567577	 2.045938
H	 -3.237870	 1.761370	 3.769952
H	 -2.477227	 2.869455	 2.645841
C	 3.449556	 -0.089977	 -0.000570
H	 3.585694	 0.522473	 -0.879546
H	 4.155805	 -0.904274	 -0.001389
H	 3.586173	 0.521118	 0.879272

1 2 4 17 F
