%nprocshared=1
%mem=2GB
#HF/6-31G* nosymm scf=tight opt=ModRedundant

Mol

0 1
O	 -2.042549	 -1.228399	 -0.269030
C	 -1.653912	 -0.146171	 0.050137
C	 -0.332303	 0.024011	 0.778412
C	 -2.438579	 1.106236	 -0.272369
C	 0.830382	 -0.537217	 -0.055290
H	 -0.153631	 1.071657	 1.004016
H	 -0.401028	 -0.517264	 1.715546
C	 2.178590	 -0.413405	 0.656072
H	 0.880892	 -0.019599	 -1.011639
H	 0.625684	 -1.580421	 -0.276571
C	 3.335361	 -0.978864	 -0.166939
H	 2.373047	 0.632607	 0.882940
H	 2.127650	 -0.930121	 1.611571
H	 3.433509	 -0.458820	 -1.115608
H	 3.184600	 -2.032689	 -0.381803
H	 4.277447	 -0.880402	 0.362972
H	 -3.277823	 0.863061	 -0.908988
H	 -1.806773	 1.843019	 -0.759671
H	 -2.802853	 1.554979	 0.648059

5 3 2 4 F
