%nprocshared=4
%mem=2GB
#HF/cc-pVTZ nosymm scf=tight opt=ModRedundant

Mol

0 1
H	 2.808634	 -0.465350	 0.509029
O	 1.988696	 -0.889745	 0.305739
C	 1.025859	 0.027564	 0.316234
C	 -0.318151	 -0.570512	 0.000144
O	 1.243560	 1.165813	 0.550678
C	 -1.454884	 0.441630	 -0.000560
H	 -0.230211	 -1.064906	 -0.962006
H	 -0.494709	 -1.360761	 0.722801
C	 -2.822577	 -0.232186	 0.000063
H	 -1.359760	 1.084704	 -0.867077
H	 -1.359641	 1.085996	 0.864983
H	 -2.954352	 -0.858985	 -0.875745
H	 -3.615886	 0.505352	 0.000019
H	 -2.953878	 -0.858359	 0.876394

7 4 6 10 F
