%nprocshared=4
%mem=2GB
#HF/cc-pVTZ nosymm scf=tight opt=ModRedundant

Mol

0 1
H	 -2.498963	 -0.741158	 -0.729149
O	 -2.346257	 -0.289210	 0.080372
C	 -1.183935	 0.486039	 -0.009831
C	 0.062853	 -0.375310	 0.027457
H	 -1.178881	 1.094526	 -0.908634
H	 -1.184406	 1.155156	 0.838676
O	 -0.172303	 -1.447594	 0.879724
H	 0.911700	 0.213645	 0.378863
H	 0.297735	 -0.718519	 -0.977836
C	 0.883781	 -2.344418	 0.987497
H	 1.777074	 -1.861466	 1.377444
H	 0.585365	 -3.126866	 1.669706
H	 1.125735	 -2.790665	 0.025809

8 4 3 5 F
