%nprocshared=4
%mem=2GB
#HF/cc-pVTZ nosymm scf=tight opt=ModRedundant

Mol

0 1
H	 -2.644180	 -0.653737	 1.272255
C	 -2.092774	 -0.380414	 0.391915
O	 -0.808934	 -0.154049	 0.752536
F	 -2.163230	 -1.351640	 -0.507133
F	 -2.627232	 0.691260	 -0.169301
C	 0.164440	 -0.187881	 -0.222502
C	 1.346771	 -0.974211	 0.338797
Cl	 0.679767	 1.448680	 -0.671551
H	 -0.167195	 -0.678108	 -1.121024
F	 2.305365	 -1.055922	 -0.548584
F	 0.953059	 -2.193303	 0.621853
F	 1.827292	 -0.436521	 1.426105

6 3 2 4 F
