%nprocshared=4
%mem=2GB
#HF/cc-pVTZ nosymm scf=tight opt=ModRedundant

Mol

0 1
O	 0.571025	 1.288175	 -0.383953
C	 0.485107	 0.171416	 -0.000134
C	 1.606966	 -0.836201	 0.000174
O	 -0.628156	 -0.347218	 0.487973
C	 2.988788	 -0.202529	 -0.000115
H	 1.465110	 -1.474645	 -0.864821
H	 1.465209	 -1.474077	 0.865596
H	 3.131767	 0.419673	 -0.873407
H	 3.750876	 -0.972315	 0.000098
H	 3.131883	 0.420264	 0.872742
C	 -1.776161	 0.487272	 0.551217
C	 -2.906567	 -0.326204	 1.136816
H	 -2.013148	 0.837588	 -0.443500
H	 -1.551575	 1.351157	 1.160797
H	 -3.121746	 -1.188753	 0.518690
H	 -3.800879	 0.282521	 1.199206
H	 -2.657595	 -0.672211	 2.132137

4 2 3 6 F
