%nprocshared=4
%mem=2GB
#HF/6-31G* nosymm scf=tight opt=ModRedundant

Mol

0 1
H	 -3.261111	 -0.295142	 1.469456
C	 -3.306842	 -0.277400	 0.373456
C	 -2.660244	 0.921717	 -0.272021
O	 -3.838538	 -1.161155	 -0.216482
C	 -3.263934	 1.248116	 -1.645075
H	 -2.740576	 1.761438	 0.408511
H	 -1.602813	 0.689079	 -0.391910
C	 -4.717518	 1.723030	 -1.575441
H	 -2.655759	 2.015630	 -2.114469
H	 -3.194376	 0.371879	 -2.287825
C	 -5.302328	 2.055548	 -2.949575
H	 -4.774993	 2.600231	 -0.934299
H	 -5.332142	 0.961588	 -1.099014
C	 -6.750887	 2.545470	 -2.874734
H	 -4.678755	 2.808629	 -3.424715
H	 -5.254335	 1.172289	 -3.585134
C	 -7.406693	 2.812632	 -4.234372
H	 -6.794128	 3.450941	 -2.271454
H	 -7.343007	 1.801116	 -2.346488
C	 -6.792570	 3.972969	 -5.019287
H	 -8.460920	 3.022335	 -4.071348
H	 -7.367739	 1.907597	 -4.837129
H	 -6.803189	 4.888784	 -4.434105
H	 -5.764546	 3.773165	 -5.302519
H	 -7.350749	 4.158430	 -5.931994

6 3 2 4 F
