%nprocshared=1
%mem=2GB
#HF/6-31G* nosymm scf=tight 

Mol

0 1
O	 2.862325	 1.357334	 0.000267
C	 2.843464	 0.164689	 -0.000222
C	 1.546494	 -0.624492	 -0.000609
C	 4.124123	 -0.644674	 -0.000428
C	 0.291004	 0.242674	 0.000989
H	 1.557904	 -1.283758	 -0.867573
H	 1.558622	 -1.285963	 0.864672
C	 0.136273	 1.047902	 1.292278
H	 -0.578559	 -0.390080	 -0.146021
H	 0.321221	 0.913985	 -0.851406
C	 -1.120116	 1.920276	 1.305696
H	 0.110163	 0.368775	 2.143249
H	 1.012392	 1.679005	 1.434377
C	 -1.282035	 2.728742	 2.594175
H	 -1.996616	 1.290346	 1.164432
H	 -1.094681	 2.600172	 0.455936
C	 -2.539409	 3.597453	 2.600139
H	 -1.308787	 2.050108	 3.444213
H	 -0.407156	 3.359946	 2.735690
H	 -3.434896	 2.991592	 2.494375
H	 -2.626686	 4.157592	 3.526059
H	 -2.526358	 4.311498	 1.781535
H	 4.165367	 -1.288615	 -0.874074
H	 4.976217	 0.020734	 -0.001915
H	 4.166763	 -1.286207	 0.874930

9 5 8 12 F
15 11 8 12 F
15 11 14 18 F
1 2 3 6 F
