%nprocshared=4
%mem=2GB
#HF/cc-pVTZ nosymm scf=tight opt=ModRedundant

Mol

0 1
H	 2.867672	 -0.456275	 0.875795
C	 2.403497	 -0.020426	 0.000000
N	 0.989899	 -0.304564	 0.000000
H	 2.867672	 -0.456275	 -0.875795
H	 2.620366	 1.051270	 0.000000
C	 0.711121	 -1.725779	 -0.000000
C	 0.293408	 0.352358	 -1.086702
H	 1.117960	 -2.212914	 -0.891586
H	 1.179431	 -2.181011	 0.864972
C	 -0.785921	 -1.962387	 0.055888
H	 0.455230	 1.421922	 -1.019079
H	 0.668829	 0.021529	 -2.060024
C	 -1.192901	 0.062354	 -1.002892
H	 -1.007041	 -3.016531	 -0.036381
H	 -1.174285	 -1.610579	 1.009568
O	 -1.439089	 -1.312586	 -0.994004
H	 -1.708202	 0.471770	 -1.860488
H	 -1.602325	 0.518936	 -0.104001

6 3 2 5 F
