%nprocshared=1
%mem=2GB
#HF/6-31G* nosymm scf=tight 
prop=(read,field)

Mol

0 1
H	 1.760035	 -0.679804	 -0.873823
C	 1.172765	 -0.421060	 0.000803
H	 1.757279	 -0.678307	 0.877722
O	 -0.000121	 -1.191169	 -0.000402
C	 0.770450	 1.064091	 -0.001052
C	 -1.172834	 -0.420840	 -0.000355
H	 1.163077	 1.572398	 -0.873489
H	 1.165375	 1.575218	 0.868756
C	 -0.770247	 1.064234	 0.000991
H	 -1.758339	 -0.678055	 -0.876591
H	 -1.759221	 -0.679360	 0.874889
H	 -1.162775	 1.572895	 0.873239
H	 -1.165116	 1.575131	 -0.868945

@grid.dat /N
