%nprocshared=4
%mem=2GB
#HF/cc-pVTZ nosymm scf=tight opt=ModRedundant

Mol

0 1
H	 1.127368	 -1.575496	 -0.683693
C	 0.501843	 -0.696384	 -0.849010
N	 -0.537714	 -0.645117	 0.000000
O	 0.751526	 0.100030	 -1.697598
C	 -1.522613	 0.412524	 0.000000
H	 -0.623795	 -1.379043	 0.658730
H	 -2.150256	 0.356137	 -0.880771
H	 -1.005621	 1.357208	 0.000000
H	 -2.150256	 0.356137	 0.880771

6 3 5 7 F
