%nprocshared=4
%mem=2GB
#HF/6-31G* nosymm scf=tight opt=ModRedundant

Mol

0 1
H	 -3.085476	 0.173123	 -3.118390
C	 -2.211277	 0.203795	 -2.492595
C	 -1.923872	 1.346972	 -1.762053
C	 -1.375765	 -0.899588	 -2.419115
H	 -2.572677	 2.201997	 -1.819942
C	 -0.799645	 1.385657	 -0.957627
H	 -1.600165	 -1.784877	 -2.986138
C	 -0.249843	 -0.863134	 -1.614539
H	 -0.561625	 2.261732	 -0.385342
C	 0.040970	 0.281105	 -0.881118
H	 0.399485	 -1.714668	 -1.554668
C	 1.239129	 0.373821	 0.000060
O	 1.970282	 -0.730723	 0.000018
O	 1.519910	 1.336788	 0.642490
C	 3.377318	 -0.566646	 -0.000065
H	 3.695437	 -0.028981	 -0.881264
H	 3.789299	 -1.563704	 0.000236
H	 3.695516	 -0.028316	 0.880770

10 12 13 15 F
