%nprocshared=1
%mem=2GB
#HF/6-31G* nosymm scf=tight 

Mol

0 1
O	 1.214711	 1.306902	 -0.000018
C	 1.122059	 0.121804	 -0.000188
C	 -0.170150	 -0.657997	 -0.000612
O	 2.172624	 -0.688929	 0.000216
C	 -1.412532	 0.227344	 -0.000452
H	 -0.153702	 -1.313099	 -0.867402
H	 -0.153924	 -1.313811	 0.865644
C	 -1.066368	 1.714934	 -0.081777
H	 -1.991231	 0.032644	 0.897158
H	 -2.049251	 -0.048515	 -0.835313
C	 -2.305445	 2.609187	 -0.083439
H	 -0.427674	 1.985833	 0.756531
H	 -0.484383	 1.904009	 -0.981563
H	 -2.891019	 2.468409	 0.820408
H	 -2.032381	 3.658162	 -0.141432
H	 -2.947808	 2.386429	 -0.930428
C	 3.452279	 -0.082609	 0.000533
H	 3.583069	 0.529321	 -0.880332
H	 4.163299	 -0.894027	 0.001117
H	 3.582335	 0.529955	 0.881077

9 5 8 12 F
1 2 3 6 F
1 2 4 17 F
