%nprocshared=1
%mem=2GB
#HF/6-31G* nosymm scf=tight 

Mol

0 1
O	 0.923486	 4.398267	 0.508661
C	 -0.145403	 4.852523	 0.780480
C	 -1.409005	 4.011007	 0.770499
C	 -0.310596	 6.310881	 1.156056
C	 -1.181702	 2.552514	 0.384018
H	 -1.863895	 4.081271	 1.757680
H	 -2.118398	 4.483021	 0.091996
C	 -2.475874	 1.737112	 0.385301
H	 -0.465931	 2.110210	 1.069706
H	 -0.720939	 2.512335	 -0.597934
C	 -2.259874	 0.272531	 0.000494
H	 -2.934443	 1.784568	 1.371967
H	 -3.189761	 2.187073	 -0.303151
C	 -3.549786	 -0.549746	 -0.000374
H	 -1.546934	 -0.178480	 0.688480
H	 -1.802298	 0.223846	 -0.986041
C	 -4.809590	 0.315458	 -0.000369
H	 -3.560515	 -1.202009	 -0.871156
H	 -3.561123	 -1.202955	 0.869711
H	 -4.844746	 0.956611	 -0.876632
H	 -5.706986	 -0.295590	 -0.001609
H	 -4.845960	 0.954827	 0.877144
H	 -0.737958	 6.400074	 2.150553
H	 0.650512	 6.805304	 1.130517
H	 -0.990511	 6.804477	 0.467789

9 5 8 12 F
15 11 8 12 F
1 2 3 6 F
9 5 3 6 F
