%nprocshared=4
%mem=2GB
#HF/cc-pVTZ nosymm scf=tight opt=ModRedundant

Mol

0 1
O	 1.371313	 1.045657	 0.700935
C	 1.121787	 0.124983	 0.000110
C	 -0.170912	 -0.649867	 -0.000147
O	 1.969101	 -0.353489	 -0.896273
C	 -1.413045	 0.229353	 0.001137
H	 -0.152877	 -1.303435	 -0.866175
H	 -0.152278	 -1.305116	 0.864586
C	 -2.480003	 -0.273393	 0.969205
H	 -1.820276	 0.275374	 -1.002649
H	 -1.132911	 1.244710	 0.258274
C	 -3.730314	 0.599278	 0.976841
H	 -2.754179	 -1.292277	 0.708545
H	 -2.066092	 -0.317524	 1.973180
H	 -4.187332	 0.635485	 -0.006220
H	 -4.469653	 0.218973	 1.672128
H	 -3.494307	 1.617257	 1.267703
C	 3.226978	 0.281687	 -1.004047
H	 3.107866	 1.319775	 -1.276836
H	 3.762124	 -0.246898	 -1.776112
H	 3.765395	 0.222432	 -0.069799

9 5 3 6 F
