%nprocshared=4
%mem=2GB
#HF/cc-pVTZ nosymm scf=tight opt=ModRedundant

Mol

0 1
H	 -3.498985	 1.253143	 -1.010443
O	 -3.458596	 0.315260	 -0.960865
C	 -3.176635	 -0.080824	 0.355601
C	 -1.763371	 0.265266	 0.799691
H	 -3.321825	 -1.153438	 0.379502
H	 -3.895468	 0.357385	 1.043382
C	 -1.184805	 -0.701880	 1.828385
H	 -1.116655	 0.300793	 -0.075729
H	 -1.775349	 1.272818	 1.208449
C	 -1.890940	 -0.634941	 3.180000
H	 -0.128397	 -0.494875	 1.959023
H	 -1.250483	 -1.714495	 1.437485
C	 -3.413059	 -0.673096	 3.058566
H	 -1.547480	 -1.459020	 3.797915
H	 -1.597018	 0.276613	 3.696270
C	 -4.036470	 0.553229	 2.389736
H	 -3.848324	 -0.801168	 4.046995
H	 -3.693330	 -1.554966	 2.489028
C	 -3.894066	 1.852376	 3.179092
H	 -5.092569	 0.357513	 2.231224
H	 -3.601717	 0.682616	 1.401976
H	 -4.315134	 1.751048	 4.174337
H	 -4.414911	 2.663045	 2.682325
H	 -2.858104	 2.150176	 3.287277

7 4 3 2 F
