%nprocshared=1
%mem=2GB
#HF/6-31G* nosymm scf=tight 

Mol

0 1
O	 3.175878	 0.894378	 -0.745906
C	 2.701189	 0.057885	 -0.047330
C	 1.316262	 0.093619	 0.552246
O	 3.347903	 -1.046386	 0.304773
C	 0.526820	 1.342092	 0.164673
H	 0.813072	 -0.817383	 0.245544
H	 1.429321	 0.021511	 1.631002
C	 -0.840683	 1.444632	 0.848716
H	 0.401475	 1.366736	 -0.913659
H	 1.116800	 2.216451	 0.417342
C	 -1.850822	 0.370128	 0.436197
H	 -1.259639	 2.421633	 0.619219
H	 -0.708266	 1.419863	 1.929392
C	 -3.231453	 0.580151	 1.061297
H	 -1.944448	 0.364895	 -0.648711
H	 -1.485002	 -0.615191	 0.716007
C	 -4.247650	 -0.490648	 0.660219
H	 -3.610809	 1.559590	 0.774901
H	 -3.136973	 0.596213	 2.145970
C	 -5.624797	 -0.271481	 1.285624
H	 -4.342537	 -0.508739	 -0.423437
H	 -3.872202	 -1.469978	 0.949585
H	 -6.322588	 -1.046065	 0.982782
H	 -6.043153	 0.685584	 0.986959
H	 -5.568985	 -0.282464	 2.370538
C	 4.728119	 -1.109107	 -0.004993
H	 4.882018	 -1.033965	 -1.071845
H	 5.068212	 -2.067527	 0.355250
H	 5.265056	 -0.311663	 0.488280

21 17 14 11 F
17 14 11 15 F
15 11 8 5 F
6 3 5 9 F
11 8 5 9 F
2 4 26 27 F
6 3 2 1 F
