%nprocshared=4
%mem=2GB
#HF/cc-pVTZ nosymm scf=tight opt=ModRedundant

Mol

0 1
H	 -3.498985	 1.253143	 -1.010443
O	 -3.458596	 0.315260	 -0.960865
C	 -3.176635	 -0.080824	 0.355601
C	 -1.763371	 0.265266	 0.799691
H	 -3.321825	 -1.153438	 0.379502
H	 -3.895468	 0.357385	 1.043382
C	 -1.451709	 1.758465	 0.760370
H	 -1.606180	 -0.116532	 1.807355
H	 -1.067519	 -0.272447	 0.160127
C	 -1.410957	 2.326862	 -0.655693
H	 -0.502210	 1.938483	 1.252264
H	 -2.201099	 2.291290	 1.340903
C	 -2.612289	 1.906648	 -1.500246
H	 -1.358154	 3.409863	 -0.599031
H	 -0.497085	 2.002267	 -1.148980
C	 -2.676117	 0.414635	 -1.831416
H	 -2.617747	 2.478679	 -2.425233
H	 -3.520857	 2.180450	 -0.970948
C	 -1.558477	 -0.085141	 -2.743692
H	 -3.630221	 0.209606	 -2.307257
H	 -2.670067	 -0.158140	 -0.907667
H	 -1.536242	 0.473848	 -3.673807
H	 -1.703047	 -1.130603	 -2.991381
H	 -0.583947	 0.006724	 -2.279517

7 4 3 2 F
