%nprocshared=1
%mem=2GB
#HF/6-31G* nosymm scf=tight opt=ModRedundant

Mol

0 1
H	 2.591676	 2.013956	 0.335017
O	 3.341076	 1.666752	 -0.126416
C	 3.569581	 0.339145	 0.272707
C	 2.539767	 -0.640285	 -0.279495
H	 4.553106	 0.084646	 -0.100901
H	 3.608576	 0.269204	 1.359154
C	 1.115811	 -0.397273	 0.226630
H	 2.556196	 -0.582511	 -1.364741
H	 2.852081	 -1.648031	 -0.010655
C	 1.076917	 0.464837	 1.491570
H	 0.639097	 -1.353317	 0.424338
H	 0.531746	 0.088834	 -0.554976
C	 -0.330283	 0.810025	 1.992542
H	 1.627915	 -0.037780	 2.284428
H	 1.609374	 1.392900	 1.294366
C	 -1.144978	 -0.383525	 2.498694
H	 -0.237680	 1.533769	 2.799658
H	 -0.881218	 1.312266	 1.198778
C	 -2.498450	 0.024103	 3.084688
H	 -0.571243	 -0.913971	 3.257355
H	 -1.311239	 -1.092586	 1.691296
C	 -3.316421	 -1.166047	 3.584819
H	 -2.340411	 0.722568	 3.903625
H	 -3.069262	 0.562756	 2.331090
H	 -2.785896	 -1.706913	 4.363427
H	 -4.268514	 -0.844637	 3.995732
H	 -3.523310	 -1.866020	 2.780085

10 7 4 8 F
