%nprocshared=1
%mem=2GB
#HF/6-31G* nosymm scf=tight 

Mol

0 1
H	 2.591676	 2.013956	 0.335017
O	 3.341076	 1.666752	 -0.126416
C	 3.569581	 0.339145	 0.272707
C	 2.539767	 -0.640285	 -0.279495
H	 4.553106	 0.084646	 -0.100901
H	 3.608576	 0.269204	 1.359154
C	 1.738009	 -0.097687	 -1.465091
H	 3.053672	 -1.551924	 -0.573066
H	 1.858094	 -0.905931	 0.526806
C	 0.676279	 -1.083137	 -1.961514
H	 2.418990	 0.141482	 -2.277143
H	 1.252806	 0.835167	 -1.177508
C	 -0.212910	 -0.555487	 -3.093446
H	 1.163359	 -2.001335	 -2.284795
H	 0.039590	 -1.357336	 -1.122978
C	 0.511573	 -0.305947	 -4.419090
H	 -1.010996	 -1.274902	 -3.264666
H	 -0.699440	 0.363376	 -2.769693
C	 -0.434282	 0.117955	 -5.544746
H	 1.038769	 -1.211468	 -4.716087
H	 1.271577	 0.461161	 -4.291645
C	 0.287188	 0.373900	 -6.867485
H	 -1.189605	 -0.651552	 -5.689084
H	 -0.969078	 1.017141	 -5.245843
H	 0.805513	 -0.517238	 -7.210175
H	 -0.409821	 0.670437	 -7.645224
H	 1.024707	 1.165131	 -6.765590

14 10 7 4 F
14 10 13 16 F
10 7 4 8 F
10 13 16 20 F
20 16 19 22 F
4 3 2 1 F
