%nprocshared=1
%mem=2GB
#HF/6-31G* nosymm scf=tight 

Mol

0 1
H	 -2.853136	 1.802102	 -1.084916
O	 -2.689914	 2.107033	 -0.202743
C	 -1.322376	 2.006296	 0.068649
C	 -0.793441	 0.596080	 0.058728
H	 -1.175819	 2.443273	 1.049860
H	 -0.743713	 2.609668	 -0.630004
C	 -1.530462	 -0.493172	 -0.025500
H	 0.279937	 0.512098	 0.131457
H	 -1.092586	 -1.461565	 -0.186463
H	 -2.602122	 -0.450675	 0.050101

5 3 2 1 F
5 3 4 7 F
