%nprocshared=4
%mem=2GB
#HF/cc-pVTZ nosymm scf=tight opt=ModRedundant

Mol

0 1
O	 1.847685	 1.294399	 -0.000190
C	 1.704209	 0.119472	 -0.000093
C	 0.380337	 -0.600947	 -0.000234
O	 2.715427	 -0.733672	 0.000025
C	 -0.824290	 0.329213	 -0.000115
H	 0.371455	 -1.255476	 -0.865660
H	 0.371410	 -1.255787	 0.864952
C	 -1.798398	 0.017396	 1.132096
H	 -1.333064	 0.255057	 -0.954538
H	 -0.483417	 1.355252	 0.079504
C	 -3.013258	 0.940599	 1.148874
H	 -2.134483	 -1.013721	 1.047870
H	 -1.281085	 0.090407	 2.086190
C	 -3.987102	 0.628690	 2.280135
H	 -3.531255	 0.867761	 0.196755
H	 -2.678832	 1.970632	 1.234612
H	 -4.366380	 -0.384875	 2.202232
H	 -4.836834	 1.301294	 2.262971
H	 -3.507333	 0.727100	 3.248314
C	 4.020999	 -0.192556	 0.000019
H	 4.182809	 0.412891	 -0.879449
H	 4.692590	 -1.035653	 0.000152
H	 4.182726	 0.413087	 0.879368

9 5 3 6 F
