%nprocshared=4
%mem=2GB
#HF/cc-pVTZ nosymm scf=tight opt=ModRedundant

Mol

0 1
H	 -3.258660	 -0.290394	 1.471450
C	 -3.307964	 -0.275695	 0.374072
C	 -2.653809	 0.914422	 -0.273689
O	 -3.855140	 -1.148880	 -0.205112
C	 -2.777264	 2.188999	 0.566483
H	 -1.619548	 0.669988	 -0.478363
H	 -3.156729	 1.064456	 -1.226509
C	 -1.987266	 2.140914	 1.872536
H	 -2.435805	 3.027604	 -0.030582
H	 -3.826241	 2.378549	 0.780752
C	 -2.111162	 3.421754	 2.693438
H	 -0.940370	 1.955585	 1.647218
H	 -2.318849	 1.297363	 2.472453
C	 -1.310324	 3.375349	 3.993343
H	 -1.786736	 4.261176	 2.086425
H	 -3.159002	 3.599087	 2.925565
C	 -1.468569	 4.605007	 4.889333
H	 -0.257106	 3.235638	 3.760972
H	 -1.614180	 2.497578	 4.556809
C	 -0.902906	 5.897508	 4.305764
H	 -0.973775	 4.405126	 5.834647
H	 -2.520717	 4.745219	 5.123064
H	 0.147313	 5.784976	 4.056019
H	 -1.425934	 6.200531	 3.406707
H	 -0.986301	 6.709553	 5.018921

6 3 2 4 F
