%nprocshared=4
%mem=2GB
#HF/cc-pVTZ nosymm scf=tight opt=ModRedundant

Mol

0 1
H	 -3.545530	 5.558034	 -1.896909
C	 -4.172737	 5.281052	 -1.038552
C	 -3.536437	 4.317943	 -0.073443
O	 -5.262631	 5.726645	 -0.934214
C	 -4.471943	 3.172387	 0.324308
H	 -2.617409	 3.949293	 -0.510271
H	 -3.278119	 4.892575	 0.813334
C	 -4.789956	 2.214817	 -0.822038
H	 -4.012391	 2.621075	 1.137454
H	 -5.395737	 3.584229	 0.723287
C	 -5.641798	 2.853761	 -1.915610
H	 -5.305112	 1.344352	 -0.424534
H	 -3.866333	 1.843414	 -1.258395
C	 -6.900381	 3.527547	 -1.372262
H	 -5.037082	 3.575553	 -2.455684
H	 -5.927719	 2.092630	 -2.638262
C	 -7.827821	 4.111512	 -2.439380
H	 -6.614724	 4.314215	 -0.677756
H	 -7.459838	 2.800038	 -0.790848
C	 -7.244121	 5.287623	 -3.218572
H	 -8.743922	 4.435874	 -1.955707
H	 -8.114795	 3.326049	 -3.133643
H	 -6.941812	 6.086551	 -2.549005
H	 -6.377675	 4.999038	 -3.801388
H	 -7.976863	 5.694192	 -3.906144

12 8 11 14 F
