%nprocshared=4
%mem=2GB
#HF/6-31G* nosymm scf=tight opt=ModRedundant

Mol

0 1
H	 2.591676	 2.013956	 0.335017
O	 3.341076	 1.666752	 -0.126416
C	 3.569581	 0.339145	 0.272707
C	 2.826294	 -0.681805	 -0.581643
H	 4.636978	 0.184041	 0.181700
H	 3.312316	 0.207359	 1.323053
C	 1.301928	 -0.580011	 -0.487767
H	 3.137349	 -0.557930	 -1.615696
H	 3.142030	 -1.676806	 -0.272371
C	 0.585705	 -1.652221	 -1.313726
H	 0.988570	 0.405059	 -0.822145
H	 0.996607	 -0.669207	 0.554905
C	 -0.942141	 -1.648748	 -1.187168
H	 0.860276	 -1.540101	 -2.361050
H	 0.954279	 -2.628867	 -1.007106
C	 -1.633709	 -0.410049	 -1.763220
H	 -1.329109	 -2.529576	 -1.695316
H	 -1.216216	 -1.760334	 -0.139185
C	 -3.160261	 -0.500262	 -1.709018
H	 -1.319492	 -0.271493	 -2.796748
H	 -1.315382	 0.480132	 -1.226054
C	 -3.853020	 0.737688	 -2.277548
H	 -3.488444	 -1.380748	 -2.257223
H	 -3.475549	 -0.648455	 -0.678233
H	 -3.583330	 0.894710	 -3.318142
H	 -4.933304	 0.642531	 -2.226879
H	 -3.573885	 1.631473	 -1.726552

4 3 2 1 F
