%nprocshared=1
%mem=2GB
#HF/6-31G* nosymm scf=tight 

Mol

0 1
O	 2.862325	 1.357334	 0.000267
C	 2.843464	 0.164689	 -0.000222
C	 1.546494	 -0.624492	 -0.000609
C	 4.124123	 -0.644674	 -0.000428
C	 0.291004	 0.242674	 0.000989
H	 1.557904	 -1.283758	 -0.867573
H	 1.558622	 -1.285963	 0.864672
C	 -0.519076	 0.103839	 -1.289072
H	 0.575173	 1.279759	 0.148744
H	 -0.324660	 -0.024269	 0.854129
C	 -1.779775	 0.970017	 -1.299286
H	 0.105354	 0.369708	 -2.140805
H	 -0.799371	 -0.938798	 -1.431929
C	 -2.595422	 0.836755	 -2.586521
H	 -1.500713	 2.012597	 -1.157262
H	 -2.405165	 0.704510	 -0.448763
C	 -3.853032	 1.705142	 -2.589284
H	 -1.971680	 1.103048	 -3.437319
H	 -2.876250	 -0.204760	 -2.728793
H	 -3.603263	 2.757000	 -2.482698
H	 -4.409387	 1.589558	 -3.514384
H	 -4.514798	 1.439163	 -1.769854
H	 4.165367	 -1.288615	 -0.874074
H	 4.976217	 0.020734	 -0.001915
H	 4.166763	 -1.286207	 0.874930

9 5 8 12 F
15 11 8 12 F
15 11 14 18 F
1 2 3 6 F
