%nprocshared=1
%mem=2GB
#HF/6-31G* nosymm scf=tight 

Mol

0 1
H	 -2.393105	 -0.229623	 3.168715
C	 -2.800014	 -0.589496	 2.215542
C	 -2.662563	 0.370133	 1.061059
O	 -3.303273	 -1.663738	 2.148570
C	 -1.222047	 0.867591	 0.877474
H	 -3.033482	 -0.115947	 0.166154
H	 -3.310621	 1.219812	 1.272532
C	 -0.248279	 -0.229906	 0.440924
H	 -1.224461	 1.662782	 0.137914
H	 -0.874602	 1.318748	 1.805642
C	 1.180775	 0.282413	 0.250794
H	 -0.602644	 -0.671050	 -0.488411
H	 -0.246121	 -1.034357	 1.173995
C	 2.148627	 -0.814315	 -0.201312
H	 1.170899	 1.092245	 -0.474331
H	 1.536955	 0.712566	 1.185934
C	 3.580890	 -0.659131	 0.322722
H	 2.166869	 -0.852443	 -1.289387
H	 1.762857	 -1.776509	 0.128956
C	 4.324889	 0.564933	 -0.213704
H	 4.142010	 -1.551473	 0.056605
H	 3.564836	 -0.624694	 1.410140
H	 4.342616	 0.565491	 -1.300421
H	 3.866655	 1.493402	 0.110242
H	 5.353900	 0.572371	 0.132816

6 3 5 8 F
6 3 2 4 F
3 5 8 12 F
12 8 11 14 F
20 17 14 18 F
