%nprocshared=1
%mem=2GB
#HF/6-31G* nosymm scf=tight 

Mol

0 1
O	 1.214711	 1.306902	 -0.000018
C	 1.122059	 0.121804	 -0.000188
C	 -0.170150	 -0.657997	 -0.000612
O	 2.172624	 -0.688929	 0.000216
C	 -1.412532	 0.227344	 -0.000452
H	 -0.153702	 -1.313099	 -0.867402
H	 -0.153924	 -1.313811	 0.865644
C	 -2.449123	 -0.225289	 -1.030000
H	 -1.120950	 1.254091	 -0.198630
H	 -1.853801	 0.225426	 0.991405
C	 -3.697758	 0.655552	 -1.035697
H	 -2.001588	 -0.222309	 -2.021857
H	 -2.735837	 -1.255441	 -0.828375
H	 -3.448345	 1.686701	 -1.268462
H	 -4.416059	 0.313488	 -1.774149
H	 -4.188171	 0.645695	 -0.066657
C	 3.452279	 -0.082609	 0.000533
H	 3.583069	 0.529321	 -0.880332
H	 4.163299	 -0.894027	 0.001117
H	 3.582335	 0.529955	 0.881077

9 5 8 12 F
1 2 3 6 F
1 2 4 17 F
