%nprocshared=4
%mem=2GB
#HF/cc-pVTZ nosymm scf=tight opt=ModRedundant

Mol

0 1
H	 -0.485319	 -1.631949	 0.148447
N	 -0.625934	 -0.663929	 -0.000707
C	 -1.978635	 -0.158664	 0.001017
C	 0.462529	 0.113727	 -0.193274
H	 -2.519057	 -0.493535	 -0.876362
H	 -1.938890	 0.917202	 -0.004137
H	 -2.514266	 -0.485137	 0.884506
C	 1.781264	 -0.626493	 -0.150480
O	 0.401654	 1.293356	 -0.377245
H	 1.813291	 -1.386936	 -0.922036
H	 2.582420	 0.077006	 -0.306387
H	 1.910884	 -1.114860	 0.808328

4 2 3 5 F
