%nprocshared=4
%mem=2GB
#HF/cc-pVTZ nosymm scf=tight opt=ModRedundant

Mol

0 1
O	 0.880492	 4.464983	 -0.127420
C	 -0.206688	 4.936952	 -0.200864
C	 -1.461016	 4.086959	 -0.199130
C	 -0.411631	 6.431624	 -0.301754
C	 -1.207861	 2.589435	 -0.098321
H	 -2.086597	 4.428298	 0.622578
H	 -2.018170	 4.323706	 -1.102754
C	 -2.498432	 1.774858	 -0.100253
H	 -0.643966	 2.384219	 0.804466
H	 -0.575343	 2.279584	 -0.922365
C	 -2.258482	 0.271340	 0.000669
H	 -3.128816	 2.092671	 0.727325
H	 -3.059666	 1.987236	 -1.007542
C	 -3.544441	 -0.550271	 -0.000253
H	 -1.697741	 0.058026	 0.907410
H	 -1.629086	 -0.047443	 -0.826595
C	 -4.804551	 0.308747	 0.000556
H	 -3.553737	 -1.201524	 -0.870151
H	 -3.553831	 -1.203282	 0.868313
H	 -4.842050	 0.949078	 -0.874436
H	 -5.698404	 -0.304480	 -0.000254
H	 -4.842277	 0.947103	 0.876982
H	 -1.016561	 6.783041	 0.526867
H	 0.543537	 6.933588	 -0.292914
H	 -0.943582	 6.675197	 -1.214849

15 11 14 18 F
