%nprocshared=1
%mem=2GB
#HF/6-31G* nosymm scf=tight 
prop=(read,field)

Mol

0 1
H	 3.276308	 0.174343	 -0.109462
N	 2.434383	 -0.367756	 -0.081096
C	 1.267559	 0.496459	 0.024475
H	 2.502083	 -0.965797	 0.720576
C	 -0.015955	 -0.325179	 -0.029486
H	 1.288950	 1.183500	 -0.816091
H	 1.267708	 1.109042	 0.929529
C	 -1.282145	 0.529052	 0.046736
H	 -0.012364	 -0.908659	 -0.945787
H	 -0.015771	 -1.041269	 0.791957
C	 -2.563788	 -0.301795	 -0.006060
H	 -1.283952	 1.244602	 -0.773004
H	 -1.271255	 1.115373	 0.963287
H	 -2.621716	 -0.873542	 -0.927726
H	 -3.445004	 0.329931	 0.047812
H	 -2.609411	 -1.004602	 0.821106

@grid.dat /N
