%nprocshared=1
%mem=2GB
#HF/6-31G* nosymm scf=tight 

Mol

0 1
O	 1.846825	 1.296220	 0.000415
C	 1.705091	 0.115954	 0.001797
C	 0.381791	 -0.609817	 0.001258
O	 2.721346	 -0.737485	 -0.000216
C	 -0.823008	 0.326187	 0.001381
H	 0.371250	 -1.265087	 -0.865474
H	 0.370908	 -1.265746	 0.867490
C	 -0.891516	 1.184216	 -1.262800
H	 -0.780043	 0.964198	 0.878470
H	 -1.731329	 -0.260070	 0.099177
C	 -2.093748	 2.129857	 -1.278970
H	 0.023637	 1.766970	 -1.357080
H	 -0.932002	 0.538690	 -2.138893
C	 -2.162338	 2.986039	 -2.542892
H	 -2.053405	 2.777152	 -0.405744
H	 -3.008743	 1.549139	 -1.185750
H	 -1.275459	 3.604895	 -2.646222
H	 -3.024748	 3.645106	 -2.524736
H	 -2.237932	 2.367045	 -3.432523
C	 4.024888	 -0.184556	 -0.001949
H	 4.179030	 0.422472	 -0.882452
H	 4.701782	 -1.024608	 -0.003642
H	 4.181981	 0.421185	 0.878906

15 11 8 12 F
9 5 8 12 F
1 2 3 6 F
1 2 4 20 F
