%nprocshared=4
%mem=2GB
#HF/cc-pVTZ nosymm scf=tight opt=ModRedundant

Mol

0 1
O	 -1.278239	 1.034789	 -0.784693
C	 -1.204115	 0.062668	 -0.112312
C	 -2.386398	 -0.667698	 0.460323
O	 -0.068058	 -0.518372	 0.226882
H	 -2.382952	 -1.693172	 0.114333
H	 -3.296656	 -0.175702	 0.158400
H	 -2.312537	 -0.685191	 1.540100
C	 0.168991	 -1.876172	 -0.159106
C	 1.134483	 -2.444797	 0.861484
C	 0.708772	 -1.922325	 -1.577243
H	 -0.772002	 -2.402950	 -0.112999
H	 0.715123	 -2.388333	 1.857826
H	 1.343243	 -3.483711	 0.636121
H	 2.069474	 -1.897399	 0.852364
H	 0.900361	 -2.948951	 -1.866786
H	 -0.003979	 -1.502588	 -2.273272
H	 1.637956	 -1.368377	 -1.648255

8 4 2 1 F
