%nprocshared=4
%mem=2GB
#HF/cc-pVTZ nosymm scf=tight opt=ModRedundant

Mol

0 1
H	 4.051741	 4.899441	 0.000271
C	 3.493893	 3.982391	 0.000217
C	 2.110956	 4.015969	 0.000195
C	 4.159616	 2.771277	 0.000169
H	 1.594909	 4.956392	 0.000232
C	 1.394812	 2.837143	 0.000125
H	 5.232112	 2.746313	 0.000186
C	 3.443941	 1.590046	 0.000099
H	 0.323831	 2.844812	 0.000107
C	 2.058439	 1.619981	 0.000076
H	 3.956425	 0.650424	 0.000062
C	 1.238974	 0.374429	 0.000004
O	 1.968286	 -0.725612	 -0.000027
O	 0.053610	 0.364958	 0.000015
C	 3.373556	 -0.568203	 0.000011
H	 3.695416	 -0.031588	 -0.879663
H	 3.782700	 -1.565294	 -0.000152
H	 3.695405	 -0.031851	 0.879862

10 12 13 15 F
