%nprocshared=1
%mem=2GB
#HF/6-31G* nosymm scf=tight 

Mol

0 1
O	 -0.988096	 -1.408613	 0.050699
C	 -0.676749	 -0.249230	 -0.009274
C	 -1.746085	 0.827156	 -0.009539
N	 0.623947	 0.147590	 -0.102813
H	 -1.701500	 1.431508	 -0.908902
H	 -2.703425	 0.330732	 0.036390
H	 -1.647323	 1.487769	 0.845106
C	 1.580804	 -0.378012	 0.851149
C	 1.066126	 1.304484	 -0.850020
H	 2.524176	 -0.565784	 0.350342
H	 1.206397	 -1.298308	 1.264448
H	 1.757455	 0.325418	 1.661952
H	 2.064824	 1.121409	 -1.228338
H	 0.427123	 1.498220	 -1.696824
H	 1.100819	 2.199086	 -0.230911

2 4 8 10 F
