%nprocshared=4
%mem=2GB
#HF/cc-pVTZ nosymm scf=tight opt=ModRedundant

Mol

0 1
H	 -3.162190	 0.493205	 -0.000107
C	 -2.363908	 -0.234727	 0.000005
O	 -1.158738	 0.454634	 -0.000087
H	 -2.464314	 -0.863616	 -0.882153
H	 -2.464327	 -0.863359	 0.882345
C	 -0.028611	 -0.359694	 0.000037
C	 1.212847	 0.509314	 -0.000053
H	 -0.034155	 -1.007047	 -0.877198
H	 -0.034195	 -1.006836	 0.877430
C	 0.916605	 1.947998	 0.408332
H	 1.940720	 0.071896	 0.674330
H	 1.651227	 0.485244	 -0.991615
H	 0.499148	 1.997109	 1.408534
H	 1.819764	 2.545705	 0.399845
H	 0.207961	 2.413310	 -0.268704

11 7 6 8 F
