%nprocshared=4
%mem=2GB
#HF/cc-pVTZ nosymm scf=tight 
prop=(read,field)

Mol

0 1
O	 1.847903	 1.294424	 -0.000190
C	 1.704427	 0.119497	 -0.000093
C	 0.380555	 -0.600922	 -0.000234
O	 2.715645	 -0.733647	 0.000025
C	 -0.824072	 0.329238	 -0.000115
H	 0.371673	 -1.255451	 -0.865660
H	 0.371628	 -1.255762	 0.864952
C	 -2.145933	 -0.432800	 -0.000068
H	 -0.773718	 0.979183	 -0.866319
H	 -0.773620	 0.979059	 0.866186
C	 -3.366065	 0.483577	 0.000557
H	 -2.189068	 -1.084425	 -0.869996
H	 -2.188649	 -1.085058	 0.869399
C	 -4.687218	 -0.277978	 0.000108
H	 -3.324932	 1.134844	 -0.867957
H	 -3.324869	 1.133755	 0.869885
H	 -4.773565	 -0.912073	 -0.876078
H	 -5.531704	 0.401417	 0.000363
H	 -4.773683	 -0.912873	 0.875703
C	 4.021217	 -0.192531	 0.000019
H	 4.183027	 0.412916	 -0.879449
H	 4.692808	 -1.035628	 0.000152
H	 4.182944	 0.413112	 0.879368

@grid.dat /N
