%nprocshared=1
%mem=2GB
#HF/6-31G* nosymm scf=tight opt=ModRedundant

Mol

0 1
O	 -2.042549	 -1.228399	 -0.269030
C	 -1.653912	 -0.146171	 0.050137
C	 -0.332303	 0.024011	 0.778412
C	 -2.438579	 1.106236	 -0.272369
C	 0.826507	 0.187812	 -0.217681
H	 -0.371708	 0.881693	 1.444154
H	 -0.171158	 -0.864085	 1.379443
C	 2.182471	 0.331722	 0.474910
H	 0.650952	 1.058998	 -0.846408
H	 0.840209	 -0.674446	 -0.877578
C	 3.337714	 0.485780	 -0.513465
H	 2.158849	 1.191437	 1.141061
H	 2.357310	 -0.538427	 1.103273
H	 3.208558	 1.367831	 -1.134237
H	 3.406727	 -0.374802	 -1.172312
H	 4.286187	 0.582654	 0.005227
H	 -3.277823	 0.863061	 -0.908988
H	 -1.806773	 1.843019	 -0.759671
H	 -2.802853	 1.554979	 0.648059

5 3 2 4 F
