%nprocshared=4
%mem=2GB
#HF/6-31G* nosymm scf=tight opt=ModRedundant

Mol

0 1
O	 3.225979	 0.970355	 -0.599647
C	 2.701189	 0.057885	 -0.047330
C	 1.245376	 -0.013843	 0.345420
O	 3.347903	 -1.046386	 0.304773
C	 0.669116	 -1.425322	 0.257284
H	 1.165249	 0.396495	 1.346615
H	 0.702379	 0.671405	 -0.300557
C	 -0.833130	 -1.498083	 0.551322
H	 1.209158	 -2.076321	 0.938219
H	 0.855355	 -1.813216	 -0.738345
C	 -1.226267	 -1.155313	 1.991136
H	 -1.171115	 -2.507783	 0.329976
H	 -1.368968	 -0.843767	 -0.134796
C	 -2.719594	 -1.348880	 2.262253
H	 -0.652862	 -1.777837	 2.676329
H	 -0.958982	 -0.125606	 2.217485
C	 -3.124877	 -1.004330	 3.696534
H	 -2.992772	 -2.381284	 2.050709
H	 -3.293781	 -0.734776	 1.570238
C	 -4.616985	 -1.203978	 3.960078
H	 -2.551320	 -1.616385	 4.389400
H	 -2.856571	 0.028572	 3.908440
H	 -4.873138	 -0.951665	 4.984446
H	 -4.910339	 -2.236159	 3.790545
H	 -5.217852	 -0.578953	 3.305420
C	 4.728119	 -1.109107	 -0.004993
H	 4.882018	 -1.033965	 -1.071845
H	 5.068212	 -2.067527	 0.355250
H	 5.265056	 -0.311663	 0.488280

6 3 2 1 F
