%nprocshared=4
%mem=2GB
#HF/cc-pVTZ nosymm scf=tight opt=ModRedundant

Mol

0 1
H	 -3.498985	 1.253143	 -1.010443
O	 -3.458596	 0.315260	 -0.960865
C	 -3.176635	 -0.080824	 0.355601
C	 -1.763371	 0.265266	 0.799691
H	 -3.321825	 -1.153438	 0.379502
H	 -3.895468	 0.357385	 1.043382
C	 -1.361690	 -0.365992	 2.129536
H	 -1.064199	 -0.039223	 0.022317
H	 -1.686932	 1.347757	 0.868672
C	 -2.137518	 0.193488	 3.319092
H	 -0.298731	 -0.220803	 2.287499
H	 -1.516811	 -1.440748	 2.071703
C	 -3.643897	 0.251016	 3.072998
H	 -1.927650	 -0.414572	 4.193796
H	 -1.775122	 1.193420	 3.548576
C	 -4.082987	 1.246320	 1.997629
H	 -4.150729	 0.486194	 4.006091
H	 -3.986140	 -0.739256	 2.785159
C	 -3.844002	 2.712737	 2.349268
H	 -5.142656	 1.102779	 1.809818
H	 -3.576556	 1.012641	 1.064709
H	 -4.334161	 2.974087	 3.281747
H	 -4.238745	 3.362582	 1.576531
H	 -2.789717	 2.938087	 2.455605

7 4 3 2 F
