%nprocshared=1
%mem=2GB
#HF/6-31G* nosymm scf=tight 

Mol

0 1
H	 -2.540319	 1.038766	 1.187947
C	 -1.910240	 1.756398	 1.709623
O	 -0.560670	 1.457906	 1.551819
H	 -2.078044	 2.739003	 1.290731
H	 -2.197831	 1.768367	 2.760135
C	 -0.189244	 0.213645	 2.054916
C	 1.263565	 -0.043037	 1.729850
H	 -0.324481	 0.187603	 3.136918
H	 -0.798711	 -0.576749	 1.621522
O	 1.392611	 -0.295398	 0.366430
H	 1.854541	 0.823035	 2.020836
H	 1.614343	 -0.899054	 2.307676
C	 2.706965	 -0.449871	 -0.062409
H	 2.756559	 -0.644779	 -1.131878
H	 3.305899	 0.433456	 0.155466
H	 3.125548	 -1.294566	 0.467107

3 6 7 11 F
2 3 6 7 F
