%nprocshared=1
%mem=2GB
#HF/6-31G* nosymm scf=tight 

Mol

0 1
O	 3.392538	 1.157702	 0.104554
C	 2.790186	 0.157771	 0.328988
C	 1.322897	 0.072507	 0.673344
O	 3.347903	 -1.046386	 0.304773
C	 0.633142	 1.434701	 0.701307
H	 0.865984	 -0.600175	 -0.044933
H	 1.245573	 -0.424962	 1.636797
C	 -0.830591	 1.376167	 1.151369
H	 0.697525	 1.889537	 -0.282613
H	 1.184309	 2.087633	 1.369377
C	 -1.770927	 0.637647	 0.194568
H	 -1.187413	 2.396580	 1.270364
H	 -0.888420	 0.919705	 2.138439
C	 -3.235600	 0.701777	 0.632310
H	 -1.674651	 1.065005	 -0.802385
H	 -1.475302	 -0.405596	 0.109594
C	 -4.183830	 -0.037312	 -0.313597
H	 -3.543504	 1.743346	 0.706910
H	 -3.330818	 0.284364	 1.633509
C	 -5.644979	 0.034786	 0.128608
H	 -4.089223	 0.377878	 -1.314751
H	 -3.880289	 -1.079613	 -0.386068
H	 -6.291967	 -0.498012	 -0.561420
H	 -5.989514	 1.063926	 0.177212
H	 -5.778751	 -0.404256	 1.113301
C	 4.728119	 -1.109107	 -0.004993
H	 4.882018	 -1.033965	 -1.071845
H	 5.068212	 -2.067527	 0.355250
H	 5.265056	 -0.311663	 0.488280

21 17 14 11 F
17 14 11 15 F
15 11 8 5 F
6 3 5 9 F
11 8 5 9 F
1 2 4 26 F
6 3 2 1 F
