%nprocshared=1
%mem=2GB
#HF/6-31G* nosymm scf=tight 

Mol

0 1
H	 -2.129144	 0.952176	 -2.209459
N	 -1.154186	 0.841715	 -2.008883
C	 -0.788779	 -0.563695	 -1.988776
H	 -0.987550	 1.243255	 -1.106604
C	 0.678937	 -0.711441	 -1.646556
H	 -1.368368	 -1.157845	 -1.280917
H	 -0.956533	 -0.979970	 -2.977389
O	 0.874168	 -0.245412	 -0.342030
H	 0.979340	 -1.756456	 -1.719636
H	 1.277763	 -0.133703	 -2.347171
C	 2.202317	 -0.244239	 0.074611
H	 2.711377	 -1.041390	 -0.449894
H	 2.692099	 0.699270	 -0.159667
H	 2.283185	 -0.418429	 1.145558

8 5 3 6 F
6 3 2 4 F
11 8 5 3 F
