%nprocshared=1
%mem=2GB
#HF/6-31G* nosymm scf=tight 

Mol

0 1
H	 -2.294596	 0.113574	 2.577986
C	 -2.733160	 -0.280860	 1.652942
C	 -2.647883	 0.641372	 0.463477
O	 -3.228242	 -1.360894	 1.639884
C	 -1.220012	 1.144545	 0.209990
H	 -3.047109	 0.123021	 -0.400606
H	 -3.295751	 1.492103	 0.671272
C	 -0.252658	 0.041456	 -0.226725
H	 -1.257511	 1.914920	 -0.554471
H	 -0.842673	 1.628891	 1.109312
C	 1.180775	 0.282413	 0.250794
H	 -0.266029	 -0.034465	 -1.312038
H	 -0.597733	 -0.921000	 0.146291
C	 2.148627	 -0.814315	 -0.201312
H	 1.516199	 1.249228	 -0.115937
H	 1.192670	 0.346017	 1.338083
C	 3.580890	 -0.659131	 0.322722
H	 2.166869	 -0.852443	 -1.289387
H	 1.762857	 -1.776509	 0.128956
C	 4.324889	 0.564933	 -0.213704
H	 4.142010	 -1.551473	 0.056605
H	 3.564836	 -0.624694	 1.410140
H	 4.342616	 0.565491	 -1.300421
H	 3.866655	 1.493402	 0.110242
H	 5.353900	 0.572371	 0.132816

6 3 5 8 F
6 3 2 4 F
12 8 11 14 F
8 11 14 18 F
20 17 14 18 F
