%nprocshared=4
%mem=2GB
#HF/cc-pVTZ nosymm scf=tight opt=ModRedundant

Mol

0 1
H	 -2.644180	 -0.653737	 1.272255
C	 -2.092774	 -0.380414	 0.391915
O	 -0.808934	 -0.154049	 0.752536
F	 -2.163230	 -1.351640	 -0.507133
F	 -2.627232	 0.691260	 -0.169301
C	 -0.029970	 -1.228868	 1.123050
C	 0.748757	 -0.820498	 2.371287
Cl	 1.092099	 -1.684823	 -0.172559
H	 -0.614322	 -2.099794	 1.363189
F	 1.501547	 -1.807952	 2.785127
F	 -0.100358	 -0.530917	 3.328608
F	 1.503615	 0.223326	 2.164229

6 3 2 4 F
