%nprocshared=1
%mem=2GB
#HF/6-31G* nosymm scf=tight 

Mol

0 1
H	 3.477458	 -0.434328	 4.890259
C	 3.052248	 -1.173486	 4.218422
C	 1.770535	 -0.655506	 3.567205
H	 3.801915	 -1.409256	 3.468920
H	 2.864761	 -2.075412	 4.794771
C	 1.140492	 -1.677010	 2.617791
H	 1.988858	 0.257593	 3.022976
H	 1.052635	 -0.395389	 4.343511
C	 -0.154324	 -1.193408	 1.964455
H	 1.850705	 -1.938141	 1.841227
H	 0.924871	 -2.589145	 3.169660
C	 0.039520	 -0.104108	 0.919901
H	 -0.643207	 -2.024478	 1.458405
H	 -0.862711	 -0.848345	 2.714319
C	 -1.181045	 0.701995	 0.511084
O	 1.105199	 0.102806	 0.421986
C	 -2.285934	 -0.139295	 -0.145128
H	 -0.839153	 1.469809	 -0.172499
H	 -1.581193	 1.195888	 1.394620
C	 -3.651768	 0.085446	 0.506485
H	 -2.346596	 0.110469	 -1.202272
H	 -2.034737	 -1.195320	 -0.088721
C	 -4.759797	 -0.746382	 -0.137905
H	 -3.908762	 1.140117	 0.445781
H	 -3.588286	 -0.154158	 1.565709
H	 -4.868882	 -0.505166	 -1.191300
H	 -4.548009	 -1.809175	 -0.062213
H	 -5.715422	 -0.564821	 0.343442

10 6 3 2 F
16 12 15 17 F
