%nprocshared=1
%mem=2GB
#HF/6-31G* nosymm scf=tight 

Mol

0 1
H	 -3.420663	 1.227371	 -1.044276
O	 -3.452007	 0.283848	 -0.965577
C	 -3.181085	 -0.079926	 0.364119
C	 -1.765924	 0.277073	 0.805136
H	 -3.327791	 -1.152017	 0.410903
H	 -3.905698	 0.375695	 1.036898
C	 -0.677594	 -0.417312	 -0.014550
H	 -1.637766	 1.358238	 0.744969
H	 -1.659588	 0.017670	 1.857098
C	 0.539197	 0.473464	 -0.273620
H	 -1.098549	 -0.746743	 -0.959527
H	 -0.360470	 -1.317956	 0.508581
C	 1.626777	 -0.230431	 -1.089578
H	 0.214388	 1.375158	 -0.787299
H	 0.959199	 0.798430	 0.677484
C	 2.903891	 0.591096	 -1.299880
H	 1.220889	 -0.516254	 -2.058730
H	 1.892510	 -1.158389	 -0.587486
C	 2.719705	 1.844548	 -2.157399
H	 3.649284	 -0.045768	 -1.770077
H	 3.313737	 0.872778	 -0.331952
H	 2.299001	 1.594780	 -3.127844
H	 3.671609	 2.338037	 -2.328236
H	 2.060057	 2.565895	 -1.686564

20 16 13 17 F
17 13 10 7 F
13 10 7 11 F
1 2 3 5 F
7 4 3 2 F
