%nprocshared=1
%mem=2GB
#HF/6-31G* nosymm scf=tight 

Mol

0 1
H	 -2.646374	 -0.642757	 1.268656
C	 -2.083525	 -0.384536	 0.393091
O	 -0.807605	 -0.127164	 0.768327
F	 -2.118945	 -1.383102	 -0.486752
F	 -2.621877	 0.670592	 -0.209486
C	 0.084052	 0.273579	 -0.209957
C	 0.616189	 1.638944	 0.205699
Cl	 -0.712276	 0.368751	 -1.789203
H	 0.917838	 -0.399893	 -0.304874
F	 1.486386	 2.081203	 -0.677083
F	 1.233425	 1.519084	 1.364185
F	 -0.341283	 2.524650	 0.335104

10 7 6 9 F
6 3 2 4 F
