%nprocshared=4
%mem=2GB
#HF/cc-pVTZ nosymm scf=tight opt=ModRedundant

Mol

0 1
H	 -2.542443	 2.076436	 -1.861229
C	 -2.831993	 1.028208	 -1.705461
C	 -1.849609	 0.015202	 -2.227602
O	 -3.854584	 0.770179	 -1.171573
C	 -0.422122	 0.263198	 -1.731161
H	 -2.199166	 -0.973435	 -1.959755
H	 -1.869449	 0.094298	 -3.312339
C	 -0.247837	 0.040196	 -0.230469
H	 0.248561	 -0.394360	 -2.273509
H	 -0.123132	 1.276760	 -1.987070
C	 1.181757	 0.280428	 0.247371
H	 -0.544883	 -0.976236	 0.013942
H	 -0.923400	 0.690501	 0.319209
C	 2.151032	 -0.811012	 -0.202643
H	 1.515939	 1.247397	 -0.115449
H	 1.191514	 0.341223	 1.333422
C	 3.580021	 -0.656538	 0.320835
H	 2.170545	 -0.847575	 -1.289412
H	 1.766632	 -1.772905	 0.124928
C	 4.327657	 0.562694	 -0.213579
H	 4.138806	 -1.549270	 0.057813
H	 3.561991	 -0.620783	 1.406976
H	 4.355973	 0.557257	 -1.298551
H	 3.867136	 1.491650	 0.100501
H	 5.351524	 0.571613	 0.142204

12 8 11 14 F
