%nprocshared=1
%mem=2GB
#HF/6-31G* nosymm scf=tight opt=ModRedundant

Mol

0 1
O	 1.836840	 1.284734	 -0.170581
C	 1.705091	 0.115954	 0.001797
C	 0.395387	 -0.594197	 0.243099
O	 2.721346	 -0.737485	 -0.000216
C	 -0.809087	 0.342170	 0.253229
H	 0.294087	 -1.357777	 -0.523319
H	 0.485293	 -1.130285	 1.183974
C	 -2.121750	 -0.403320	 0.498632
H	 -0.857376	 0.872881	 -0.692393
H	 -0.666585	 1.099904	 1.017324
C	 -3.340669	 0.520769	 0.511102
H	 -2.257099	 -1.164110	 -0.268750
H	 -2.066156	 -0.935368	 1.447165
C	 -4.651804	 -0.224508	 0.757556
H	 -3.399097	 1.051115	 -0.436770
H	 -3.207357	 1.280777	 1.277752
H	 -4.830828	 -0.968975	 -0.013115
H	 -5.496639	 0.457176	 0.760950
H	 -4.637369	 -0.737902	 1.714911
C	 4.024888	 -0.184556	 -0.001949
H	 4.179030	 0.422472	 -0.882452
H	 4.701782	 -1.024608	 -0.003642
H	 4.181981	 0.421185	 0.878906

1 2 4 20 F
