%nprocshared=1
%mem=2GB
#HF/6-31G* nosymm scf=tight 

Mol

0 1
H	 2.126360	 -2.893689	 -0.553910
O	 2.902309	 -2.592330	 -1.003530
C	 2.605529	 -2.361208	 -2.357250
C	 1.761573	 -1.111567	 -2.582773
H	 3.561231	 -2.251266	 -2.853455
H	 2.113187	 -3.229779	 -2.793100
C	 0.365442	 -1.182599	 -1.959360
H	 2.297831	 -0.256051	 -2.180422
H	 1.670735	 -0.952944	 -3.656064
C	 -0.475719	 0.063680	 -2.249281
H	 0.460348	 -1.314442	 -0.885127
H	 -0.156081	 -2.061601	 -2.338451
C	 -1.913329	 0.007759	 -1.719668
H	 0.025685	 0.937720	 -1.837583
H	 -0.511236	 0.214400	 -3.326185
C	 -2.037799	 -0.007733	 -0.193645
H	 -2.452429	 0.871761	 -2.102665
H	 -2.414235	 -0.867129	 -2.131374
C	 -3.489788	 0.042957	 0.286558
H	 -1.493993	 0.840600	 0.219535
H	 -1.565031	 -0.899207	 0.211409
C	 -4.216917	 1.317354	 -0.141063
H	 -4.025645	 -0.823308	 -0.095450
H	 -3.513059	 -0.038752	 1.371301
H	 -4.239342	 1.411634	 -1.223113
H	 -5.243387	 1.322503	 0.212445
H	 -3.726170	 2.201406	 0.256408

14 10 7 4 F
14 10 13 16 F
10 7 4 8 F
8 4 3 2 F
10 13 16 20 F
4 3 2 1 F
