%nprocshared=4
%mem=2GB
#HF/cc-pVTZ nosymm scf=tight opt=ModRedundant

Mol

0 1
H	 2.582791	 -2.011624	 0.614957
O	 3.292123	 -1.866326	 0.016987
C	 2.966853	 -2.366723	 -1.253082
C	 1.933548	 -1.527140	 -1.989335
H	 3.892138	 -2.374806	 -1.813227
H	 2.626221	 -3.397702	 -1.178917
C	 0.554366	 -1.513256	 -1.333963
H	 2.309285	 -0.511725	 -2.072468
H	 1.847005	 -1.915644	 -3.001251
C	 -0.464519	 -0.687743	 -2.118335
H	 0.639921	 -1.119387	 -0.326715
H	 0.189657	 -2.534809	 -1.240673
C	 -1.883368	 -0.699318	 -1.546506
H	 -0.114119	 0.339193	 -2.187971
H	 -0.502038	 -1.063486	 -3.137098
C	 -2.041121	 -0.006551	 -0.194127
H	 -2.542953	 -0.215249	 -2.261456
H	 -2.229167	 -1.727494	 -1.466313
C	 -3.489218	 0.042606	 0.286507
H	 -1.653250	 1.007416	 -0.264087
H	 -1.440234	 -0.511020	 0.556506
C	 -4.219984	 1.311773	 -0.139038
H	 -4.022855	 -0.824300	 -0.093339
H	 -3.510372	 -0.038577	 1.370031
H	 -4.244251	 1.405725	 -1.219696
H	 -5.244345	 1.313233	 0.215630
H	 -3.732090	 2.196311	 0.257073

20 16 19 22 F
