%nprocshared=1
%mem=2GB
#HF/6-31G* nosymm scf=tight 

Mol

0 1
O	 3.225979	 0.970355	 -0.599647
C	 2.701189	 0.057885	 -0.047330
C	 1.245376	 -0.013843	 0.345420
O	 3.347903	 -1.046386	 0.304773
C	 0.455112	 1.231400	 -0.050772
H	 0.838542	 -0.913825	 -0.103701
H	 1.208210	 -0.175333	 1.419774
C	 -0.998893	 1.219485	 0.433193
H	 0.482531	 1.345121	 -1.130325
H	 0.957290	 2.103070	 0.354729
C	 -1.498469	 2.547830	 1.008548
H	 -1.092919	 0.452309	 1.198258
H	 -1.650346	 0.911974	 -0.383543
C	 -2.915768	 2.454323	 1.577334
H	 -0.817629	 2.876826	 1.792153
H	 -1.477948	 3.319407	 0.242245
C	 -3.427422	 3.777202	 2.150339
H	 -2.941816	 1.692853	 2.354971
H	 -3.595274	 2.115062	 0.797030
C	 -4.841949	 3.674327	 2.719750
H	 -2.749016	 4.118163	 2.929539
H	 -3.406239	 4.538525	 1.373346
H	 -5.176366	 4.627288	 3.118043
H	 -4.888830	 2.945187	 3.523711
H	 -5.550921	 3.368191	 1.955608
C	 4.728119	 -1.109107	 -0.004993
H	 4.882018	 -1.033965	 -1.071845
H	 5.068212	 -2.067527	 0.355250
H	 5.265056	 -0.311663	 0.488280

21 17 14 11 F
17 14 11 15 F
15 11 8 5 F
6 3 5 9 F
2 4 26 27 F
1 2 4 26 F
6 3 2 1 F
