%nprocshared=1
%mem=2GB
#HF/6-31G* nosymm scf=tight opt=ModRedundant

Mol

0 1
O	 0.621555	 1.345177	 0.112753
C	 0.486307	 0.169203	 0.000779
C	 1.608116	 -0.841643	 0.000302
O	 -0.692628	 -0.419810	 -0.143381
C	 2.990107	 -0.200498	 -0.000684
H	 1.468623	 -1.481519	 -0.865924
H	 1.469683	 -1.481289	 0.866878
H	 3.129736	 0.423364	 -0.875135
H	 3.757882	 -0.966877	 -0.001197
H	 3.130964	 0.423383	 0.873533
C	 -1.846694	 0.413970	 -0.161954
C	 -3.052794	 -0.484346	 -0.337061
H	 -1.755802	 1.123700	 -0.972884
H	 -1.894126	 0.971111	 0.763753
H	 -2.987517	 -1.039367	 -1.265958
H	 -3.958578	 0.112994	 -0.356778
H	 -3.126729	 -1.192803	 0.480177

4 2 3 6 F
