%nprocshared=1
%mem=2GB
#HF/6-31G* nosymm scf=tight 

Mol

0 1
O	 0.008443	 -0.256292	 -0.173229
C	 1.122059	 0.121804	 -0.000188
C	 1.535718	 1.552624	 0.243811
O	 2.172624	 -0.688929	 0.000216
C	 0.363883	 2.529386	 0.252809
H	 2.076622	 1.578025	 1.185899
H	 2.261649	 1.815649	 -0.520778
C	 0.810485	 3.970933	 0.501518
H	 -0.348079	 2.227955	 1.014881
H	 -0.163112	 2.465559	 -0.694136
C	 -0.357268	 4.956463	 0.510866
H	 1.338628	 4.029106	 1.451127
H	 1.525651	 4.266956	 -0.263321
H	 -1.073538	 4.707342	 1.288394
H	 -0.013642	 5.970537	 0.689339
H	 -0.884783	 4.947341	 -0.438494
C	 3.452279	 -0.082609	 0.000533
H	 3.583069	 0.529321	 -0.880332
H	 4.163299	 -0.894027	 0.001117
H	 3.582335	 0.529955	 0.881077

9 5 8 12 F
1 2 3 6 F
9 5 3 6 F
