%nprocshared=1
%mem=2GB
#HF/6-31G* nosymm scf=tight 

Mol

0 1
H	 0.700444	 -0.546814	 -1.803221
O	 0.277750	 0.246049	 -2.104137
C	 0.117723	 1.116212	 -1.021930
C	 -0.793441	 0.596080	 0.058728
H	 -0.288593	 2.034704	 -1.429952
H	 1.082345	 1.370539	 -0.583925
C	 -1.530462	 -0.493172	 -0.025500
H	 -0.820160	 1.192575	 0.957596
H	 -1.092586	 -1.461565	 -0.186463
H	 -2.602122	 -0.450675	 0.050101

5 3 2 1 F
5 3 4 7 F
