%nprocshared=1
%mem=2GB
#HF/6-31G* nosymm scf=tight opt=ModRedundant

Mol

0 1
H	 5.249684	 -0.007244	 1.070325
C	 4.648883	 -0.355752	 0.235998
C	 3.159447	 -0.322900	 0.576113
H	 4.867485	 0.279604	 -0.617159
H	 4.975109	 -1.362979	 -0.008685
C	 2.283064	 -0.815158	 -0.577771
H	 2.874447	 0.690364	 0.840065
H	 2.977608	 -0.940116	 1.454561
C	 0.787594	 -0.810781	 -0.260257
H	 2.458727	 -0.202452	 -1.454913
H	 2.574417	 -1.830507	 -0.837044
C	 0.169600	 0.576866	 -0.172154
H	 0.244836	 -1.342737	 -1.040133
H	 0.584258	 -1.352365	 0.660893
C	 -1.181045	 0.701995	 0.511084
O	 0.711952	 1.534021	 -0.637034
C	 -2.285934	 -0.139295	 -0.145128
H	 -1.449051	 1.751551	 0.493206
H	 -1.071135	 0.403303	 1.551943
C	 -3.651768	 0.085446	 0.506485
H	 -2.346596	 0.110469	 -1.202272
H	 -2.034737	 -1.195320	 -0.088721
C	 -4.759797	 -0.746382	 -0.137905
H	 -3.908762	 1.140117	 0.445781
H	 -3.588286	 -0.154158	 1.565709
H	 -4.868882	 -0.505166	 -1.191300
H	 -4.548009	 -1.809175	 -0.062213
H	 -5.715422	 -0.564821	 0.343442

16 12 15 17 F
