%nprocshared=4
%mem=2GB
#HF/cc-pVTZ nosymm scf=tight opt=ModRedundant

Mol

0 1
H	 -2.903318	 1.830351	 1.324728
C	 -2.645267	 0.803984	 1.162591
C	 -1.556464	 0.510544	 0.494946
H	 -3.287611	 0.040185	 1.554769
O	 -1.189946	 -0.765863	 0.237511
H	 -0.901196	 1.267885	 0.104838
C	 0.026572	 -0.995256	 -0.379403
C	 1.057223	 0.049888	 -0.004615
H	 -0.054361	 -1.010670	 -1.459674
H	 0.397526	 -1.952058	 -0.044198
F	 2.203233	 -0.234060	 -0.590375
F	 0.698147	 1.254887	 -0.392621
F	 1.266440	 0.094219	 1.288722

3 5 7 9 F
