%nprocshared=4
%mem=2GB
#HF/cc-pVTZ nosymm scf=tight opt=ModRedundant

Mol

0 1
O	 1.528347	 0.915774	 -0.858006
C	 1.704209	 0.119472	 -0.000093
C	 0.832990	 -0.064256	 1.215992
O	 2.715427	 -0.733672	 0.000025
C	 -0.350266	 0.891242	 1.273014
H	 0.503876	 -1.098230	 1.221514
H	 1.470438	 0.047043	 2.087034
C	 -1.209534	 0.677681	 2.515620
H	 -0.954263	 0.765592	 0.381570
H	 0.013424	 1.912216	 1.247833
C	 -2.401393	 1.627579	 2.590677
H	 -1.569009	 -0.348774	 2.536096
H	 -0.597095	 0.801970	 3.405962
C	 -3.260496	 1.413857	 3.832320
H	 -3.014309	 1.503609	 1.702352
H	 -2.043432	 2.653090	 2.571942
H	 -3.662012	 0.406322	 3.862193
H	 -4.096635	 2.103148	 3.854296
H	 -2.683565	 1.565279	 4.738662
C	 4.020999	 -0.192556	 0.000019
H	 4.182809	 0.412891	 -0.879449
H	 4.692590	 -1.035653	 0.000152
H	 4.182726	 0.413087	 0.879368

1 2 4 20 F
