%nprocshared=1
%mem=2GB
#HF/6-31G* nosymm scf=tight 

Mol

0 1
O	 2.862325	 1.357334	 0.000267
C	 2.843464	 0.164689	 -0.000222
C	 1.546494	 -0.624492	 -0.000609
C	 4.124123	 -0.644674	 -0.000428
C	 0.291004	 0.242674	 0.000989
H	 1.557904	 -1.283758	 -0.867573
H	 1.558622	 -1.285963	 0.864672
C	 -0.994322	 -0.586602	 0.000262
H	 0.309117	 0.896430	 -0.865270
H	 0.309661	 0.894078	 0.869017
C	 -2.259874	 0.272531	 0.000494
H	 -1.004862	 -1.240012	 -0.870939
H	 -1.005220	 -1.241071	 0.870675
C	 -2.108229	 1.573963	 -0.788994
H	 -2.535951	 0.505518	 1.027391
H	 -3.085709	 -0.303953	 -0.412616
C	 -3.376426	 2.426801	 -0.783932
H	 -1.283770	 2.151633	 -0.376211
H	 -1.833740	 1.342305	 -1.816052
H	 -3.658429	 2.703825	 0.227938
H	 -3.237633	 3.342272	 -1.350810
H	 -4.212027	 1.889214	 -1.223156
H	 4.165367	 -1.288615	 -0.874074
H	 4.976217	 0.020734	 -0.001915
H	 4.166763	 -1.286207	 0.874930

9 5 8 12 F
15 11 14 18 F
1 2 3 6 F
9 5 3 6 F
