%nprocshared=4
%mem=2GB
#HF/cc-pVTZ nosymm scf=tight opt=ModRedundant

Mol

0 1
H	 3.990376	 4.858733	 0.841549
C	 3.444836	 3.949847	 0.672764
C	 2.076262	 3.992954	 0.475813
C	 4.112009	 2.739696	 0.652855
H	 1.559079	 4.932624	 0.491400
C	 1.375929	 2.824616	 0.258984
H	 5.173359	 2.707338	 0.805699
C	 3.412156	 1.568961	 0.435864
H	 0.316200	 2.839750	 0.104700
C	 2.041071	 1.608459	 0.238190
H	 3.925808	 0.630113	 0.419838
C	 1.238974	 0.374429	 0.000004
O	 1.968286	 -0.725612	 -0.000027
O	 0.066184	 0.373300	 -0.172451
C	 3.373556	 -0.568203	 0.000011
H	 3.695416	 -0.031588	 -0.879663
H	 3.782700	 -1.565294	 -0.000152
H	 3.695405	 -0.031851	 0.879862

10 12 13 15 F
