%nprocshared=4
%mem=2GB
#HF/cc-pVTZ nosymm scf=tight opt=ModRedundant

Mol

0 1
O	 -0.694481	 1.313155	 -0.204815
C	 -0.862519	 0.151932	 -0.046791
C	 -2.171428	 -0.477048	 0.339095
O	 0.085519	 -0.757083	 -0.192238
H	 -2.467997	 -1.191667	 -0.417688
H	 -2.923379	 0.287970	 0.444097
H	 -2.053854	 -1.015120	 1.270901
C	 -0.086762	 -2.029991	 0.419732
C	 -0.892669	 -2.967480	 -0.455212
H	 -0.553166	 -1.900630	 1.383863
H	 0.916348	 -2.403362	 0.561560
H	 -0.945941	 -3.944394	 0.011963
H	 -1.900702	 -2.599839	 -0.589720
H	 -0.426586	 -3.079642	 -1.426695

8 4 2 1 F
