%nprocshared=1
%mem=2GB
#HF/6-31G* nosymm scf=tight opt=ModRedundant

Mol

0 1
H	 5.163236	 -0.592095	 1.006542
C	 4.554514	 -0.759372	 0.123367
C	 3.065408	 -0.661338	 0.452196
H	 4.838738	 -0.019655	 -0.619181
H	 4.807132	 -1.739600	 -0.271774
C	 2.177425	 -0.899195	 -0.771211
H	 2.853958	 0.318606	 0.867647
H	 2.818713	 -1.389992	 1.222843
C	 0.680572	 -0.825251	 -0.469171
H	 2.417590	 -0.174694	 -1.541316
H	 2.394952	 -1.882415	 -1.182310
C	 0.169600	 0.576866	 -0.172154
H	 0.114473	 -1.186185	 -1.326510
H	 0.417401	 -1.484282	 0.355205
C	 -1.181045	 0.701995	 0.511084
O	 0.793410	 1.548135	 -0.478591
C	 -2.285934	 -0.139295	 -0.145128
H	 -1.449051	 1.751551	 0.493206
H	 -1.071135	 0.403303	 1.551943
C	 -3.651768	 0.085446	 0.506485
H	 -2.346596	 0.110469	 -1.202272
H	 -2.034737	 -1.195320	 -0.088721
C	 -4.759797	 -0.746382	 -0.137905
H	 -3.908762	 1.140117	 0.445781
H	 -3.588286	 -0.154158	 1.565709
H	 -4.868882	 -0.505166	 -1.191300
H	 -4.548009	 -1.809175	 -0.062213
H	 -5.715422	 -0.564821	 0.343442

16 12 15 17 F
