%nprocshared=4
%mem=2GB
#HF/cc-pVTZ nosymm scf=tight opt=ModRedundant

Mol

0 1
O	 -0.699825	 -1.479668	 0.067990
C	 0.449989	 -1.343774	 0.313838
C	 1.120304	 -0.045806	 0.685704
O	 1.317782	 -2.342573	 0.292610
C	 0.164417	 1.139798	 0.729039
H	 1.610900	 -0.207355	 1.637949
H	 1.915923	 0.120172	 -0.033859
C	 -1.049443	 0.922356	 1.633529
H	 -0.164784	 1.371350	 -0.277977
H	 0.710114	 2.010330	 1.071675
C	 -0.732957	 0.356674	 3.017092
H	 -1.727141	 0.240991	 1.127927
H	 -1.591340	 1.859192	 1.742919
C	 0.405441	 1.094158	 3.717059
H	 -1.626292	 0.406971	 3.635391
H	 -0.473638	 -0.695219	 2.940865
C	 1.764395	 0.881661	 3.056104
H	 0.457870	 0.771610	 4.754148
H	 0.182467	 2.158370	 3.741579
C	 2.896725	 1.620032	 3.762088
H	 1.988672	 -0.181256	 3.031056
H	 1.714480	 1.206158	 2.020215
H	 3.846172	 1.448362	 3.268059
H	 2.995745	 1.292049	 4.791520
H	 2.718833	 2.690280	 3.773544
C	 0.824678	 -3.623490	 -0.043565
H	 -0.139967	 -3.792406	 0.411591
H	 1.544729	 -4.329140	 0.337866
H	 0.731980	 -3.727573	 -1.114467

2 4 26 27 F
