%nprocshared=4
%mem=2GB
#HF/cc-pVTZ nosymm scf=tight opt=ModRedundant

Mol

0 1
O	 -2.071633	 -1.227563	 -0.223463
C	 -1.652164	 -0.152425	 0.058082
C	 -0.327811	 0.006324	 0.778296
C	 -2.402515	 1.108629	 -0.298924
C	 0.843231	 -0.001575	 -0.211665
H	 -0.319484	 0.928173	 1.350354
H	 -0.227804	 -0.823091	 1.466705
C	 1.069189	 1.357382	 -0.867720
H	 0.667166	 -0.746191	 -0.983833
H	 1.740866	 -0.307099	 0.314900
C	 2.240789	 1.357553	 -1.843689
H	 0.165170	 1.661064	 -1.388347
H	 1.242014	 2.101392	 -0.095632
H	 2.081064	 0.647263	 -2.648059
H	 3.165262	 1.088238	 -1.344503
H	 2.378054	 2.335828	 -2.289265
H	 -3.240910	 0.874416	 -0.936711
H	 -1.747554	 1.818823	 -0.790984
H	 -2.760419	 1.579708	 0.610998

9 5 3 2 F
