%nprocshared=4
%mem=2GB
#HF/cc-pVTZ nosymm scf=tight opt=ModRedundant

Mol

0 1
H	 3.589742	 -3.157298	 -1.624778
C	 3.313628	 -2.200300	 -2.052309
C	 1.959149	 -1.733423	 -1.530068
H	 4.092810	 -1.488832	 -1.801502
H	 3.301934	 -2.311251	 -3.131824
C	 1.531764	 -0.391311	 -2.120024
H	 1.999556	 -1.656882	 -0.449583
H	 1.206633	 -2.483097	 -1.763588
C	 0.176369	 0.098405	 -1.620055
H	 2.281454	 0.357727	 -1.897008
H	 1.484461	 -0.479036	 -3.201620
C	 0.166485	 0.574257	 -0.177158
H	 -0.154083	 0.943379	 -2.218875
H	 -0.584210	 -0.666518	 -1.746273
C	 -1.180025	 0.697761	 0.509157
O	 1.169856	 0.860791	 0.392420
C	 -2.285431	 -0.137488	 -0.145671
H	 -1.447360	 1.745713	 0.496200
H	 -1.065514	 0.394096	 1.546399
C	 -3.646545	 0.082747	 0.508954
H	 -2.348635	 0.118247	 -1.199806
H	 -2.034895	 -1.192387	 -0.096473
C	 -4.757412	 -0.737227	 -0.138149
H	 -3.900211	 1.137405	 0.459735
H	 -3.580878	 -0.166775	 1.564416
H	 -4.867876	 -0.486707	 -1.187777
H	 -4.549650	 -1.800049	 -0.072540
H	 -5.709585	 -0.556397	 0.346597

16 12 15 17 F
