%nprocshared=4
%mem=2GB
#HF/6-31G* nosymm scf=tight opt=ModRedundant

Mol

0 1
O	 0.064562	 -1.269062	 -1.332285
C	 0.873870	 -1.233815	 -0.462320
C	 1.245376	 -0.013843	 0.345420
O	 1.574527	 -2.294085	 -0.079519
C	 0.455112	 1.231400	 -0.050772
H	 1.105063	 -0.269272	 1.390532
H	 2.313470	 0.144138	 0.219274
C	 -0.998893	 1.219485	 0.433193
H	 0.482531	 1.345121	 -1.130325
H	 0.957290	 2.103070	 0.354729
C	 -1.883438	 0.145884	 -0.207175
H	 -1.431207	 2.195402	 0.224832
H	 -1.019646	 1.105716	 1.516076
C	 -3.347647	 0.245583	 0.225435
H	 -1.822183	 0.231698	 -1.291012
H	 -1.510341	 -0.844814	 0.042401
C	 -4.239992	 -0.825570	 -0.404234
H	 -3.732888	 1.230466	 -0.033079
H	 -3.408585	 0.170602	 1.310038
C	 -5.701275	 -0.716658	 0.029921
H	 -4.179496	 -0.752714	 -1.488058
H	 -3.859041	 -1.810759	 -0.143352
H	 -6.308102	 -1.488908	 -0.432678
H	 -6.122175	 0.245478	 -0.248167
H	 -5.799072	 -0.820114	 1.106957
C	 1.323813	 -3.509942	 -0.760490
H	 0.292613	 -3.808507	 -0.638058
H	 1.980091	 -4.239828	 -0.312637
H	 1.541146	 -3.407445	 -1.813960

6 3 5 9 F
