%nprocshared=4
%mem=2GB
#HF/cc-pVTZ nosymm scf=tight opt=ModRedundant

Mol

0 1
O	 -0.988175	 -1.402891	 0.050086
C	 -0.675048	 -0.248293	 -0.009686
C	 -1.742492	 0.826599	 -0.011538
N	 0.622280	 0.144970	 -0.099307
H	 -1.692153	 1.431066	 -0.908439
H	 -2.698310	 0.331559	 0.031353
H	 -1.642148	 1.483784	 0.843455
C	 0.936587	 1.552358	 0.028828
C	 1.678392	 -0.676291	 -0.641444
H	 1.858978	 1.667279	 0.584895
H	 0.141407	 2.054232	 0.549398
H	 1.064814	 2.018635	 -0.944709
H	 2.605853	 -0.443872	 -0.134066
H	 1.482179	 -1.724789	 -0.496360
H	 1.826595	 -0.497846	 -1.704099

8 4 2 3 F
