%nprocshared=4
%mem=2GB
#HF/6-31G* nosymm scf=tight opt=ModRedundant

Mol

0 1
O	 -2.042549	 -1.228399	 -0.269030
C	 -1.653912	 -0.146171	 0.050137
C	 -0.332303	 0.024011	 0.778412
C	 -2.438579	 1.106236	 -0.272369
C	 0.720398	 0.668223	 -0.137385
H	 -0.464495	 0.627914	 1.671838
H	 0.005100	 -0.960776	 1.082181
C	 2.077748	 0.830040	 0.548505
H	 0.369711	 1.642813	 -0.472462
H	 0.828358	 0.053928	 -1.026277
C	 3.128965	 1.462211	 -0.362817
H	 1.960813	 1.438416	 1.442726
H	 2.427542	 -0.143588	 0.883557
H	 2.822786	 2.452560	 -0.687649
H	 3.291229	 0.858583	 -1.250931
H	 4.081181	 1.561757	 0.148458
H	 -3.277823	 0.863061	 -0.908988
H	 -1.806773	 1.843019	 -0.759671
H	 -2.802853	 1.554979	 0.648059

5 3 2 4 F
