%nprocshared=4
%mem=2GB
#HF/cc-pVTZ nosymm scf=tight opt=ModRedundant

Mol

0 1
H	 2.606349	 -0.692043	 1.216423
O	 1.867289	 -1.025801	 0.730490
C	 0.900123	 -0.113344	 0.755643
C	 -0.318151	 -0.570512	 0.000144
O	 1.024428	 0.920240	 1.316197
C	 -1.454884	 0.441630	 -0.000560
H	 0.001142	 -0.805108	 -1.010256
H	 -0.630552	 -1.513526	 0.437215
C	 -2.822577	 -0.232186	 0.000063
H	 -1.359760	 1.084704	 -0.867077
H	 -1.359641	 1.085996	 0.864983
H	 -2.954352	 -0.858985	 -0.875745
H	 -3.615886	 0.505352	 0.000019
H	 -2.953878	 -0.858359	 0.876394

7 4 6 10 F
