%nprocshared=1
%mem=2GB
#HF/6-31G* nosymm scf=tight opt=ModRedundant

Mol

0 1
O	 1.316555	 0.667094	 -0.977184
C	 1.705091	 0.115954	 0.001797
C	 1.128554	 0.276142	 1.387370
O	 2.721346	 -0.737485	 -0.000216
C	 -0.046792	 1.247079	 1.446424
H	 0.840766	 -0.712132	 1.735516
H	 1.936335	 0.595562	 2.040195
C	 -0.611506	 1.389472	 2.860596
H	 -0.825396	 0.907511	 0.770659
H	 0.271486	 2.216797	 1.076756
C	 -1.791958	 2.359213	 2.938019
H	 -0.925567	 0.413201	 3.227009
H	 0.174607	 1.727958	 3.533898
C	 -2.354995	 2.502001	 4.351473
H	 -2.579181	 2.021072	 2.267883
H	 -1.479567	 3.335133	 2.573150
H	 -2.708143	 1.547477	 4.731452
H	 -3.189744	 3.195650	 4.373721
H	 -1.599587	 2.871576	 5.039284
C	 4.024888	 -0.184556	 -0.001949
H	 4.179030	 0.422472	 -0.882452
H	 4.701782	 -1.024608	 -0.003642
H	 4.181981	 0.421185	 0.878906

1 2 4 20 F
