%nprocshared=4
%mem=2GB
#HF/cc-pVTZ nosymm scf=tight opt=ModRedundant

Mol

0 1
H	 0.395387	 1.257511	 2.238962
C	 1.146406	 0.813145	 1.572507
C	 0.692262	 0.592428	 0.156232
O	 2.219408	 0.542052	 1.988212
C	 -0.554654	 -0.292621	 0.086567
H	 1.512351	 0.162866	 -0.403917
H	 0.466446	 1.568187	 -0.268949
C	 -1.846385	 0.513195	 -0.016346
H	 -0.473986	 -0.956115	 -0.769708
H	 -0.597929	 -0.929215	 0.966651
C	 -3.089953	 -0.365049	 -0.098564
H	 -1.798267	 1.154820	 -0.891143
H	 -1.925398	 1.173265	 0.842889
H	 -3.055079	 -1.012299	 -0.968245
H	 -3.988403	 0.236438	 -0.170014
H	 -3.183055	 -0.995885	 0.779079

6 3 5 9 F
