%nprocshared=4
%mem=2GB
#HF/cc-pVTZ nosymm scf=tight opt=ModRedundant

Mol

0 1
H	 1.581559	 -2.968770	 -0.532953
C	 1.386868	 -1.917518	 -0.716664
C	 0.329517	 -1.401595	 0.249946
H	 1.047799	 -1.803931	 -1.738942
H	 2.326777	 -1.388929	 -0.617183
N	 0.000297	 0.000045	 0.046090
H	 -0.568109	 -1.987375	 0.107660
H	 0.648278	 -1.582446	 1.280292
C	 -1.359159	 0.315706	 0.454404
C	 0.980357	 0.892896	 0.643436
C	 -2.416729	 -0.286720	 -0.460525
H	 -1.478729	 1.390261	 0.442008
H	 -1.539692	 0.003361	 1.486761
C	 1.078677	 2.237352	 -0.064526
H	 1.950193	 0.417370	 0.594936
H	 0.772117	 1.047123	 1.705869
H	 -2.285276	 0.073129	 -1.473515
H	 -2.371743	 -1.368476	 -0.483209
H	 -3.408658	 -0.007405	 -0.121593
H	 1.352881	 2.095395	 -1.102586
H	 0.144121	 2.783914	 -0.038985
H	 1.832902	 2.856338	 0.409617

3 6 9 11 F
