%nprocshared=4
%mem=2GB
#HF/cc-pVTZ nosymm scf=tight 
prop=(read,field)

Mol

0 1
H	 -0.996459	 -0.743733	 1.271440
C	 -0.247079	 0.037112	 1.209233
N	 0.526334	 -0.128137	 -0.000000
H	 0.398009	 -0.057351	 2.073512
H	 -0.763760	 0.997171	 1.271673
C	 -0.247079	 0.037112	 -1.209233
H	 1.296738	 0.504427	 -0.000000
H	 -0.996459	 -0.743733	 -1.271440
H	 0.398009	 -0.057351	 -2.073512
H	 -0.763760	 0.997171	 -1.271673

@grid.dat /N
