%nprocshared=1
%mem=2GB
#HF/6-31G* nosymm scf=tight opt=ModRedundant

Mol

0 1
O	 0.888359	 0.152864	 0.864761
C	 1.705091	 0.115954	 0.001797
C	 1.739592	 1.009887	 -1.213752
O	 2.721346	 -0.737485	 -0.000216
C	 0.591988	 2.014108	 -1.260541
H	 2.703019	 1.512366	 -1.219980
H	 1.736194	 0.366980	 -2.089753
C	 0.652062	 2.906745	 -2.500965
H	 0.615420	 2.625878	 -0.364228
H	 -0.352358	 1.479394	 -1.236039
C	 -0.491411	 3.920851	 -2.563569
H	 1.602795	 3.437476	 -2.521642
H	 0.630612	 2.287304	 -3.396350
C	 -0.431539	 4.811642	 -3.803794
H	 -0.469822	 4.542138	 -1.671001
H	 -1.441804	 3.392170	 -2.543881
H	 0.493633	 5.380279	 -3.834188
H	 -1.254767	 5.519100	 -3.819578
H	 -0.485617	 4.221070	 -4.714074
C	 4.024888	 -0.184556	 -0.001949
H	 4.179030	 0.422472	 -0.882452
H	 4.701782	 -1.024608	 -0.003642
H	 4.181981	 0.421185	 0.878906

1 2 4 20 F
