%nprocshared=1
%mem=2GB
#HF/6-31G* nosymm scf=tight 

Mol

0 1
H	 2.591676	 2.013956	 0.335017
O	 3.341076	 1.666752	 -0.126416
C	 3.569581	 0.339145	 0.272707
C	 4.986132	 -0.141791	 -0.021934
H	 3.390956	 0.317830	 1.340093
H	 2.843293	 -0.328193	 -0.189835
C	 5.327685	 -0.195332	 -1.513022
H	 5.686220	 0.513680	 0.489536
H	 5.104727	 -1.133225	 0.412070
C	 6.736746	 -0.733080	 -1.777958
H	 5.233795	 0.800625	 -1.936839
H	 4.602312	 -0.825184	 -2.028252
C	 7.098896	 -0.887783	 -3.259598
H	 7.464539	 -0.083080	 -1.295605
H	 6.832650	 -1.704230	 -1.296949
C	 7.200529	 0.426365	 -4.038804
H	 8.053988	 -1.404736	 -3.325740
H	 6.370153	 -1.537633	 -3.741745
C	 7.666372	 0.228648	 -5.482873
H	 7.892267	 1.094328	 -3.527498
H	 6.238084	 0.932272	 -4.046589
C	 7.762513	 1.538224	 -6.264814
H	 8.636368	 -0.263891	 -5.483882
H	 6.981788	 -0.446223	 -5.992558
H	 8.464997	 2.222920	 -5.797983
H	 8.096822	 1.365178	 -7.283110
H	 6.798954	 2.037742	 -6.313808

14 10 7 4 F
14 10 13 16 F
10 7 4 8 F
8 4 3 2 F
10 13 16 20 F
20 16 19 22 F
