%nprocshared=1
%mem=2GB
#HF/6-31G* nosymm scf=tight 

Mol

0 1
H	 0.336193	 -1.674840	 -4.578540
O	 1.272618	 -1.806363	 -4.608241
C	 1.906742	 -0.891523	 -3.750915
C	 1.718345	 -1.221500	 -2.274315
H	 2.958583	 -0.932189	 -4.003205
H	 1.564445	 0.122338	 -3.955121
C	 0.264941	 -1.145875	 -1.800219
H	 2.110631	 -2.218428	 -2.090980
H	 2.325070	 -0.529803	 -1.692243
C	 0.115918	 -1.429151	 -0.302766
H	 -0.332321	 -1.856229	 -2.365056
H	 -0.135922	 -0.155822	 -2.018035
C	 -1.309753	 -1.282496	 0.241564
H	 0.480840	 -2.432385	 -0.090161
H	 0.764986	 -0.748723	 0.244435
C	 -2.037799	 -0.007733	 -0.193645
H	 -1.890610	 -2.142323	 -0.085726
H	 -1.285946	 -1.330893	 1.329189
C	 -3.489788	 0.042957	 0.286558
H	 -2.017067	 0.064384	 -1.280144
H	 -1.513726	 0.868678	 0.179924
C	 -4.216917	 1.317354	 -0.141063
H	 -4.025645	 -0.823308	 -0.095450
H	 -3.513059	 -0.038752	 1.371301
H	 -4.239342	 1.411634	 -1.223113
H	 -5.243387	 1.322503	 0.212445
H	 -3.726170	 2.201406	 0.256408

14 10 7 4 F
10 7 4 8 F
8 4 3 2 F
10 13 16 20 F
20 16 19 22 F
4 3 2 1 F
