%nprocshared=4
%mem=2GB
#HF/cc-pVTZ nosymm scf=tight opt=ModRedundant

Mol

0 1
H	 6.830139	 -7.991321	 -3.594019
O	 6.919685	 -7.395448	 -2.873778
C	 7.556133	 -6.217560	 -3.294236
C	 9.071362	 -6.268321	 -3.166988
H	 7.284383	 -6.089751	 -4.333369
H	 7.164240	 -5.359806	 -2.750979
C	 9.704916	 -7.542770	 -3.720375
H	 9.489575	 -5.402795	 -3.672083
H	 9.321594	 -6.170502	 -2.113321
C	 9.352515	 -8.782571	 -2.899678
H	 10.782837	 -7.423621	 -3.750232
H	 9.377747	 -7.690647	 -4.748179
C	 9.900356	 -10.100047	 -3.451388
H	 9.703769	 -8.647057	 -1.879637
H	 8.270491	 -8.859670	 -2.838460
C	 9.300555	 -10.541715	 -4.785146
H	 10.975198	 -9.997909	 -3.573086
H	 9.754371	 -10.885928	 -2.713665
C	 7.832136	 -10.944399	 -4.675595
H	 9.873056	 -11.380783	 -5.174600
H	 9.391289	 -9.745364	 -5.517673
C	 6.986054	 -9.927542	 -3.916623
H	 7.422271	 -11.080841	 -5.672576
H	 7.761040	 -11.910621	 -4.183230
H	 7.010483	 -8.957674	 -4.402418
H	 5.950306	 -10.242320	 -3.859636
H	 7.347645	 -9.796335	 -2.902035

4 3 2 1 F
