%nprocshared=4
%mem=2GB
#HF/cc-pVTZ nosymm scf=tight opt=ModRedundant

Mol

0 1
H	 -0.366580	 2.045936	 -0.305741
C	 0.351829	 1.335402	 0.083179
N	 -0.000018	 0.000080	 -0.334836
H	 1.327156	 1.599860	 -0.305475
H	 0.380566	 1.445403	 1.171445
C	 -0.467192	 -0.805150	 0.767767
C	 -0.936248	 0.007054	 -1.432864
H	 -0.655043	 -1.817359	 0.432750
H	 0.287749	 -0.844548	 1.542814
H	 -1.389230	 -0.420003	 1.213388
H	 -0.524251	 0.561267	 -2.266704
H	 -1.123806	 -1.006045	 -1.765395
H	 -1.896778	 0.459326	 -1.168398

6 3 2 1 F
