%nprocshared=4
%mem=2GB
#HF/cc-pVTZ nosymm scf=tight opt=ModRedundant

Mol

0 1
O	 -1.278239	 1.034789	 -0.784693
C	 -1.204115	 0.062668	 -0.112312
C	 -2.386398	 -0.667698	 0.460323
O	 -0.068058	 -0.518372	 0.226882
H	 -2.382952	 -1.693172	 0.114333
H	 -3.296656	 -0.175702	 0.158400
H	 -2.312537	 -0.685191	 1.540100
C	 1.169086	 0.037484	 -0.230612
C	 2.249623	 -0.542248	 0.660153
C	 1.104678	 1.553237	 -0.176289
H	 1.318747	 -0.281794	 -1.250784
H	 2.258591	 -1.622839	 0.596969
H	 3.220909	 -0.173157	 0.353417
H	 2.086909	 -0.261382	 1.693872
H	 2.045011	 1.975567	 -0.510821
H	 0.319199	 1.927456	 -0.817874
H	 0.920801	 1.889547	 0.837796

11 8 4 2 F
