%nprocshared=4
%mem=2GB
#HF/cc-pVTZ nosymm scf=tight opt=ModRedundant

Mol

0 1
O	 -1.278239	 1.034789	 -0.784693
C	 -1.204115	 0.062668	 -0.112312
C	 -2.386398	 -0.667698	 0.460323
O	 -0.068058	 -0.518372	 0.226882
H	 -2.382952	 -1.693172	 0.114333
H	 -3.296656	 -0.175702	 0.158400
H	 -2.312537	 -0.685191	 1.540100
C	 1.169086	 0.037484	 -0.230612
C	 2.031729	 -1.135883	 -0.650339
C	 1.797530	 0.872641	 0.870378
H	 0.955675	 0.664389	 -1.082982
H	 1.546584	 -1.707421	 -1.431190
H	 2.983479	 -0.780720	 -1.026826
H	 2.219343	 -1.794447	 0.189322
H	 2.740405	 1.284340	 0.529805
H	 1.150633	 1.693620	 1.146360
H	 1.987420	 0.264199	 1.747319

11 8 4 2 F
