%nprocshared=4
%mem=2GB
#HF/cc-pVTZ nosymm scf=tight opt=ModRedundant

Mol

0 1
O	 3.042008	 -0.988224	 0.050560
C	 2.574127	 -2.072921	 -0.023620
C	 3.300766	 -3.312667	 -0.478981
O	 1.317782	 -2.342573	 0.292610
C	 2.397149	 -4.532612	 -0.607291
H	 3.786004	 -3.065991	 -1.415597
H	 4.101239	 -3.492673	 0.231772
C	 1.177008	 -4.306758	 -1.501206
H	 2.076063	 -4.845837	 0.380061
H	 2.980737	 -5.353641	 -1.005219
C	 1.471766	 -3.635503	 -2.841706
H	 0.469367	 -3.691009	 -0.954157
H	 0.676378	 -5.256458	 -1.676476
C	 2.642528	 -4.274203	 -3.584111
H	 0.582800	 -3.682140	 -3.466555
H	 1.685179	 -2.581021	 -2.693188
C	 3.989567	 -4.048757	 -2.903351
H	 2.683232	 -3.880140	 -4.596729
H	 2.465845	 -5.342907	 -3.681688
C	 5.154318	 -4.688195	 -3.651849
H	 4.167607	 -2.981324	 -2.805328
H	 3.951461	 -4.444575	 -1.892048
H	 6.094365	 -4.509740	 -3.142488
H	 5.241318	 -4.287229	 -4.656223
H	 5.022907	 -5.761863	 -3.736570
C	 0.824678	 -3.623490	 -0.043565
H	 -0.139967	 -3.792406	 0.411591
H	 1.544729	 -4.329140	 0.337866
H	 0.731980	 -3.727573	 -1.114467

6 3 2 1 F
