%nprocshared=1
%mem=2GB
#HF/6-31G* nosymm scf=tight opt=ModRedundant

Mol

0 1
H	 -2.586391	 0.503232	 3.717030
C	 -1.812347	 0.467659	 2.971125
C	 -1.641830	 1.533524	 2.100490
C	 -0.988627	 -0.643523	 2.883420
H	 -2.281345	 2.394693	 2.169586
C	 -0.646347	 1.487053	 1.141670
H	 -1.122304	 -1.468806	 3.559175
C	 0.008526	 -0.692242	 1.924417
H	 -0.499891	 2.302565	 0.459642
C	 0.181992	 0.374381	 1.050354
H	 0.648246	 -1.550130	 1.852959
C	 1.239129	 0.373821	 0.000060
O	 1.970282	 -0.730723	 0.000018
O	 1.417107	 1.268792	 -0.765584
C	 3.377318	 -0.566646	 -0.000065
H	 3.695437	 -0.028981	 -0.881264
H	 3.789299	 -1.563704	 0.000236
H	 3.695516	 -0.028316	 0.880770

10 12 13 15 F
