%nprocshared=4
%mem=2GB
#HF/cc-pVTZ nosymm scf=tight opt=ModRedundant

Mol

0 1
H	 -3.079475	 0.171455	 3.114033
C	 -2.207053	 0.202672	 2.489469
C	 -1.920698	 1.342988	 1.760551
C	 -1.372970	 -0.896819	 2.415930
H	 -2.568559	 2.196019	 1.818126
C	 -0.799453	 1.382348	 0.958208
H	 -1.595921	 -1.780662	 2.981603
C	 -0.249876	 -0.858948	 1.612984
H	 -0.562780	 2.256990	 0.387204
C	 0.040025	 0.281775	 0.881398
H	 0.398142	 -1.708712	 1.553784
C	 1.238974	 0.374429	 0.000004
O	 1.968286	 -0.725612	 -0.000027
O	 1.515516	 1.334200	 -0.638389
C	 3.373556	 -0.568203	 0.000011
H	 3.695416	 -0.031588	 -0.879663
H	 3.782700	 -1.565294	 -0.000152
H	 3.695405	 -0.031851	 0.879862

10 12 13 15 F
