%nprocshared=4
%mem=2GB
#HF/6-31G* nosymm scf=tight opt=ModRedundant

Mol

0 1
H	 -2.798360	 -0.862255	 -0.071053
N	 -1.863561	 -0.715187	 0.256814
C	 -1.344686	 0.554728	 -0.219830
H	 -1.300452	 -1.461917	 -0.101532
C	 -1.103341	 0.486837	 -1.713242
H	 -2.001355	 1.401587	 -0.015822
H	 -0.398009	 0.750231	 0.274500
O	 -2.337117	 0.313237	 -2.349439
H	 -0.629109	 1.404640	 -2.060199
H	 -0.441735	 -0.346487	 -1.939257
C	 -2.253674	 0.148757	 -3.729132
H	 -3.259833	 0.026002	 -4.106323
H	 -1.802891	 1.016813	 -4.206893
H	 -1.669179	 -0.731086	 -3.989996

6 3 2 4 F
