%nprocshared=1
%mem=2GB
#HF/6-31G* nosymm scf=tight opt=ModRedundant

Mol

0 1
H	 -2.735986	 0.553201	 0.763151
C	 -2.279855	 1.535387	 0.656396
O	 -0.898220	 1.443058	 0.522605
H	 -2.663618	 2.004059	 -0.239267
H	 -2.559489	 2.141057	 1.517440
C	 -0.257408	 0.860352	 1.613046
C	 1.215020	 0.715177	 1.307946
H	 -0.379948	 1.482620	 2.500437
H	 -0.676956	 -0.119883	 1.830122
O	 1.392611	 -0.295398	 0.366430
H	 1.599227	 1.662768	 0.935841
H	 1.749486	 0.473401	 2.227503
C	 2.706965	 -0.449871	 -0.062409
H	 2.756559	 -0.644779	 -1.131878
H	 3.305899	 0.433456	 0.155466
H	 3.125548	 -1.294566	 0.467107

7 10 13 14 F
