%nprocshared=4
%mem=2GB
#HF/6-31G* nosymm scf=tight opt=ModRedundant

Mol

0 1
H	 -3.161837	 0.500524	 -0.000234
C	 -2.367097	 -0.232926	 -0.000000
O	 -1.158440	 0.455814	 -0.000122
H	 -2.468853	 -0.861886	 -0.882833
H	 -2.468942	 -0.861421	 0.883154
C	 -0.029776	 -0.365156	 0.000148
C	 1.212217	 0.508981	 0.000007
H	 -0.036772	 -1.013236	 -0.877259
H	 -0.036869	 -1.012778	 0.877897
C	 1.134867	 1.634431	 1.030668
H	 2.075574	 -0.119598	 0.195364
H	 1.343365	 0.920688	 -0.995983
H	 1.027826	 1.242528	 2.038328
H	 2.033192	 2.242185	 1.008491
H	 0.289892	 2.289916	 0.838940

11 7 6 8 F
