%nprocshared=4
%mem=2GB
#HF/cc-pVTZ nosymm scf=tight opt=ModRedundant

Mol

0 1
H	 -3.436473	 1.252944	 -1.023892
O	 -3.458596	 0.315260	 -0.960865
C	 -3.176635	 -0.080824	 0.355601
C	 -1.763371	 0.265266	 0.799691
H	 -3.321825	 -1.153438	 0.379502
H	 -3.895468	 0.357385	 1.043382
C	 -0.673390	 -0.426948	 -0.013392
H	 -1.631049	 1.344913	 0.747560
H	 -1.664587	 -0.001624	 1.849167
C	 0.737842	 -0.043159	 0.423759
H	 -0.806103	 -0.190518	 -1.063345
H	 -0.797221	 -1.503753	 0.074146
C	 0.816447	 0.357564	 1.895591
H	 1.405453	 -0.877303	 0.230396
H	 1.094318	 0.781515	 -0.189995
C	 0.083904	 1.652743	 2.250189
H	 1.860345	 0.445823	 2.187716
H	 0.402106	 -0.447292	 2.496549
C	 0.679779	 2.913759	 1.628967
H	 0.086577	 1.763433	 3.330243
H	 -0.959435	 1.565941	 1.958077
H	 1.725230	 3.023883	 1.899118
H	 0.155581	 3.797338	 1.975009
H	 0.617356	 2.902000	 0.547500

13 10 7 11 F
