%nprocshared=1
%mem=2GB
#HF/6-31G* nosymm scf=tight opt=ModRedundant

Mol

0 1
O	 -1.276010	 1.052711	 -0.768302
C	 -1.204840	 0.067374	 -0.106123
C	 -2.388195	 -0.672128	 0.458071
O	 -0.067104	 -0.527208	 0.221609
H	 -2.388023	 -1.694060	 0.097175
H	 -3.300579	 -0.174919	 0.164318
H	 -2.315377	 -0.706351	 1.539059
C	 1.118504	 0.267759	 0.364043
C	 2.283398	 -0.670207	 0.101689
C	 1.155937	 0.890519	 1.750914
H	 1.088500	 1.045347	 -0.384933
H	 2.210169	 -1.103851	 -0.889188
H	 3.221559	 -0.129454	 0.170782
H	 2.297667	 -1.476245	 0.827466
H	 2.062327	 1.474923	 1.873172
H	 0.308229	 1.547143	 1.899953
H	 1.141442	 0.118533	 2.513695

8 4 2 1 F
