%nprocshared=1
%mem=2GB
#HF/6-31G* nosymm scf=tight 

Mol

0 1
H	 -2.698709	 -0.000305	 0.034435
C	 -1.693833	 0.000034	 0.434417
O	 -0.828952	 -0.000968	 -0.659236
H	 -1.574200	 0.882896	 1.055746
H	 -1.574147	 -0.881698	 1.057355
C	 0.559449	 -0.000782	 -0.420813
C	 1.031629	 1.267973	 0.286451
C	 1.032290	 -1.269600	 0.285928
H	 0.980758	 -0.000469	 -1.419077
H	 0.636275	 2.146154	 -0.212589
H	 2.115480	 1.323186	 0.265138
H	 0.724132	 1.297137	 1.327009
H	 0.636820	 -2.147740	 -0.213001
H	 2.116238	 -1.324663	 0.263822
H	 0.725606	 -1.299016	 1.326562

9 6 3 2 F
