%nprocshared=4
%mem=2GB
#HF/6-31G* nosymm scf=tight opt=ModRedundant

Mol

0 1
H	 -2.798360	 -0.862255	 -0.071053
N	 -1.863561	 -0.715187	 0.256814
C	 -1.344686	 0.554728	 -0.219830
H	 -1.300452	 -1.461917	 -0.101532
C	 -2.488136	 1.461177	 -0.624811
H	 -0.731524	 1.081189	 0.512886
H	 -0.724306	 0.370788	 -1.091653
O	 -3.238551	 1.757799	 0.517984
H	 -2.102337	 2.379008	 -1.067963
H	 -3.108660	 0.959166	 -1.363843
C	 -4.377930	 2.519620	 0.275054
H	 -4.870605	 2.684655	 1.223596
H	 -4.126034	 3.484056	 -0.162431
H	 -5.064485	 2.005708	 -0.394532

6 3 2 4 F
