%nprocshared=4
%mem=2GB
#HF/cc-pVTZ nosymm scf=tight opt=ModRedundant

Mol

0 1
H	 -3.258660	 -0.290394	 1.471450
C	 -3.307964	 -0.275695	 0.374072
C	 -2.653809	 0.914422	 -0.273689
O	 -3.855140	 -1.148880	 -0.205112
C	 -2.672623	 0.841595	 -1.803400
H	 -3.136512	 1.812622	 0.089036
H	 -1.622058	 0.926989	 0.070747
C	 -4.071331	 0.958104	 -2.405252
H	 -2.045614	 1.636594	 -2.192212
H	 -2.212917	 -0.089772	 -2.124991
C	 -4.072898	 0.894842	 -3.930302
H	 -4.519940	 1.893578	 -2.081611
H	 -4.707644	 0.168884	 -2.013250
C	 -5.471875	 1.023717	 -4.529887
H	 -3.429388	 1.679649	 -4.315423
H	 -3.632285	 -0.046698	 -4.250711
C	 -5.533558	 0.884202	 -6.051936
H	 -5.899023	 1.981308	 -4.241188
H	 -6.109866	 0.263182	 -4.088460
C	 -4.838125	 2.002511	 -6.824491
H	 -6.576805	 0.852783	 -6.350331
H	 -5.107758	 -0.072890	 -6.341720
H	 -5.239204	 2.972988	 -6.550072
H	 -3.770851	 2.021487	 -6.639422
H	 -4.980152	 1.877689	 -7.891830

6 3 2 4 F
