%nprocshared=4
%mem=2GB
#HF/cc-pVTZ nosymm scf=tight opt=ModRedundant

Mol

0 1
H	 1.744326	 -5.392316	 -0.031612
O	 2.580645	 -5.157505	 -0.388354
C	 2.414871	 -4.346070	 -1.521211
C	 1.954036	 -2.933681	 -1.193381
H	 3.383178	 -4.308339	 -2.001770
H	 1.724873	 -4.810614	 -2.223033
C	 0.554505	 -2.855307	 -0.587559
H	 2.672430	 -2.484949	 -0.513890
H	 1.981623	 -2.351708	 -2.111501
C	 0.113298	 -1.420414	 -0.302504
H	 0.529040	 -3.430556	 0.331920
H	 -0.158526	 -3.319325	 -1.266942
C	 -1.311023	 -1.277304	 0.237018
H	 0.809610	 -0.965346	 0.397703
H	 0.191364	 -0.846434	 -1.221699
C	 -2.041121	 -0.006551	 -0.194127
H	 -1.888548	 -2.136293	 -0.093331
H	 -1.289731	 -1.328757	 1.323321
C	 -3.489218	 0.042606	 0.286507
H	 -2.022185	 0.066287	 -1.279394
H	 -1.518764	 0.869305	 0.178730
C	 -4.219984	 1.311773	 -0.139038
H	 -4.022855	 -0.824300	 -0.093339
H	 -3.510372	 -0.038577	 1.370031
H	 -4.244251	 1.405725	 -1.219696
H	 -5.244345	 1.313233	 0.215630
H	 -3.732090	 2.196311	 0.257073

14 10 13 16 F
