%nprocshared=4
%mem=2GB
#HF/6-31G* nosymm scf=tight opt=ModRedundant

Mol

0 1
O	 -0.988096	 -1.408613	 0.050699
C	 -0.676749	 -0.249230	 -0.009274
C	 -1.746085	 0.827156	 -0.009539
N	 0.623947	 0.147590	 -0.102813
H	 -1.701500	 1.431508	 -0.908902
H	 -2.703425	 0.330732	 0.036390
H	 -1.647323	 1.487769	 0.845106
C	 0.906131	 1.534658	 -0.416329
C	 1.739030	 -0.761003	 -0.255436
H	 1.768255	 1.865309	 0.152380
H	 0.054847	 2.140629	 -0.159318
H	 1.123455	 1.664248	 -1.474345
H	 2.612750	 -0.332855	 0.221366
H	 1.543866	 -1.711614	 0.214867
H	 1.980218	 -0.935965	 -1.302351

8 4 2 3 F
