%nprocshared=4
%mem=2GB
#HF/cc-pVTZ nosymm scf=tight opt=ModRedundant

Mol

0 1
H	 2.342730	 0.877684	 -1.045694
C	 2.360424	 0.000000	 -0.411793
C	 1.173749	 0.000000	 0.526870
H	 3.286567	 0.000000	 0.151574
H	 2.342730	 -0.877684	 -1.045694
O	 0.000000	 0.000000	 -0.223739
H	 1.203779	 0.876757	 1.172538
H	 1.203779	 -0.876757	 1.172538
C	 -1.173749	 0.000000	 0.526870
C	 -2.074340	 -1.112134	 0.035565
H	 -1.676686	 0.961635	 0.433040
H	 -0.942027	 -0.140786	 1.581847
H	 -2.319439	 -0.968225	 -1.009274
H	 -2.995612	 -1.131067	 0.606548
H	 -1.584004	 -2.071812	 0.140747

11 9 6 3 F
