%nprocshared=1
%mem=2GB
#HF/6-31G* nosymm scf=tight 

Mol

0 1
H	 0.530914	 -0.336906	 -4.429012
O	 1.445999	 -0.569924	 -4.487258
C	 2.136018	 -0.061081	 -3.374151
C	 1.833143	 -0.814070	 -2.083415
H	 3.187840	 -0.152966	 -3.612693
H	 1.924941	 1.000130	 -3.247435
C	 0.375417	 -0.708490	 -1.628709
H	 2.096867	 -1.859104	 -2.223841
H	 2.484572	 -0.424579	 -1.302836
C	 0.115918	 -1.429151	 -0.302766
H	 -0.269699	 -1.122169	 -2.398814
H	 0.104203	 0.342064	 -1.523257
C	 -1.309753	 -1.282496	 0.241564
H	 0.350228	 -2.485894	 -0.417834
H	 0.809872	 -1.044605	 0.441716
C	 -2.037799	 -0.007733	 -0.193645
H	 -1.890610	 -2.142323	 -0.085726
H	 -1.285946	 -1.330893	 1.329189
C	 -3.489788	 0.042957	 0.286558
H	 -2.017067	 0.064384	 -1.280144
H	 -1.513726	 0.868678	 0.179924
C	 -4.216917	 1.317354	 -0.141063
H	 -4.025645	 -0.823308	 -0.095450
H	 -3.513059	 -0.038752	 1.371301
H	 -4.239342	 1.411634	 -1.223113
H	 -5.243387	 1.322503	 0.212445
H	 -3.726170	 2.201406	 0.256408

14 10 7 4 F
10 7 4 8 F
8 4 3 2 F
10 13 16 20 F
20 16 19 22 F
4 3 2 1 F
