%nprocshared=4
%mem=2GB
#HF/cc-pVTZ nosymm scf=tight opt=ModRedundant

Mol

0 1
O	 2.900035	 -1.093986	 -0.603666
C	 2.574127	 -2.072921	 -0.023620
C	 3.502135	 -3.162862	 0.448774
O	 1.317782	 -2.342573	 0.292610
C	 4.965170	 -2.901270	 0.113582
H	 3.342457	 -3.271020	 1.514775
H	 3.158875	 -4.090452	 0.001473
C	 5.481006	 -1.549942	 0.610235
H	 5.105713	 -2.976245	 -0.959124
H	 5.565125	 -3.691094	 0.548600
C	 5.128784	 -1.215064	 2.058752
H	 5.071083	 -0.777066	 -0.033030
H	 6.560396	 -1.505870	 0.482740
C	 5.429096	 -2.357657	 3.025230
H	 5.683691	 -0.331267	 2.365108
H	 4.076734	 -0.957288	 2.137981
C	 4.522292	 -3.569992	 2.833594
H	 5.333916	 -1.997856	 4.046907
H	 6.465798	 -2.664619	 2.907383
C	 4.827223	 -4.706398	 3.803839
H	 3.486059	 -3.264874	 2.951257
H	 4.618347	 -3.932551	 1.813702
H	 4.166713	 -5.550302	 3.640938
H	 4.705633	 -4.385387	 4.833051
H	 5.847151	 -5.057595	 3.687154
C	 0.824678	 -3.623490	 -0.043565
H	 -0.139967	 -3.792406	 0.411591
H	 1.544729	 -4.329140	 0.337866
H	 0.731980	 -3.727573	 -1.114467

1 2 4 26 F
