%nprocshared=4
%mem=2GB
#HF/cc-pVTZ nosymm scf=tight opt=ModRedundant

Mol

0 1
O	 -1.467776	 2.173241	 -1.999853
C	 -1.583952	 1.277365	 -1.228270
C	 -0.637785	 0.093301	 -1.256722
C	 -2.662128	 1.277871	 -0.170771
C	 0.648498	 0.397573	 -0.478432
H	 -0.396419	 -0.108446	 -2.292652
H	 -1.121158	 -0.784692	 -0.841579
C	 1.630207	 -0.772146	 -0.501001
H	 1.102814	 1.282458	 -0.905989
H	 0.404301	 0.638246	 0.553432
C	 2.907848	 -0.545876	 0.309149
H	 1.893968	 -0.996475	 -1.531576
H	 1.128910	 -1.655985	 -0.116119
C	 3.373802	 0.906639	 0.372125
H	 3.699140	 -1.146831	 -0.127906
H	 2.764321	 -0.923458	 1.318191
H	 3.519798	 1.311927	 -0.623875
H	 4.316899	 0.983758	 0.900700
H	 2.661122	 1.540651	 0.885346
H	 -3.376973	 0.491081	 -0.389760
H	 -3.168511	 2.230727	 -0.156215
H	 -2.241072	 1.065199	 0.805483

12 8 11 15 F
