%nprocshared=4
%mem=2GB
#HF/cc-pVTZ nosymm scf=tight opt=ModRedundant

Mol

0 1
O	 3.042008	 -0.988224	 0.050560
C	 2.574127	 -2.072921	 -0.023620
C	 3.300766	 -3.312667	 -0.478981
O	 1.317782	 -2.342573	 0.292610
C	 2.622900	 -4.018527	 -1.646677
H	 4.313896	 -3.012771	 -0.718109
H	 3.380823	 -3.969837	 0.381279
C	 2.367289	 -3.112883	 -2.852211
H	 1.688330	 -4.452743	 -1.308883
H	 3.244140	 -4.850709	 -1.954156
C	 3.555757	 -2.253140	 -3.279752
H	 1.535876	 -2.457808	 -2.609740
H	 2.038202	 -3.716887	 -3.694921
C	 4.854478	 -3.046466	 -3.396990
H	 3.332533	 -1.787501	 -4.236947
H	 3.704040	 -1.441824	 -2.573130
C	 5.388090	 -3.540520	 -2.055371
H	 5.610041	 -2.429079	 -3.876885
H	 4.696833	 -3.898349	 -4.054492
C	 6.686538	 -4.330547	 -2.180537
H	 5.546301	 -2.690391	 -1.397366
H	 4.635153	 -4.160057	 -1.575667
H	 7.037439	 -4.666263	 -1.211441
H	 7.470699	 -3.726639	 -2.624942
H	 6.552537	 -5.207314	 -2.805462
C	 0.824678	 -3.623490	 -0.043565
H	 -0.139967	 -3.792406	 0.411591
H	 1.544729	 -4.329140	 0.337866
H	 0.731980	 -3.727573	 -1.114467

6 3 2 1 F
