%nprocshared=4
%mem=2GB
#HF/cc-pVTZ nosymm scf=tight opt=ModRedundant

Mol

0 1
H	 -8.676642	 4.424262	 -2.091753
C	 -7.753786	 4.857826	 -2.500709
C	 -7.453713	 4.480253	 -3.925941
O	 -7.077635	 5.553882	 -1.825703
C	 -5.996576	 4.056341	 -4.132646
H	 -8.142446	 3.702126	 -4.228427
H	 -7.658602	 5.361399	 -4.530017
C	 -5.635452	 2.745098	 -3.438086
H	 -5.814768	 3.961980	 -5.197719
H	 -5.338436	 4.848169	 -3.783285
C	 -5.641798	 2.853761	 -1.915610
H	 -4.652647	 2.424874	 -3.773732
H	 -6.326292	 1.963865	 -3.744424
C	 -6.900381	 3.527547	 -1.372262
H	 -5.539534	 1.859670	 -1.491734
H	 -4.768067	 3.415411	 -1.592435
C	 -7.827821	 4.111512	 -2.439380
H	 -6.614724	 4.314215	 -0.677756
H	 -7.459838	 2.800038	 -0.790848
C	 -7.244121	 5.287623	 -3.218572
H	 -8.743922	 4.435874	 -1.955707
H	 -8.114795	 3.326049	 -3.133643
H	 -6.941812	 6.086551	 -2.549005
H	 -6.377675	 4.999038	 -3.801388
H	 -7.976863	 5.694192	 -3.906144

8 11 14 18 F
