%nprocshared=4
%mem=2GB
#HF/cc-pVTZ nosymm scf=tight opt=ModRedundant

Mol

0 1
O	 0.342629	 0.952774	 -1.379201
C	 0.336113	 -0.037488	 -0.730211
C	 1.479668	 -1.014684	 -0.624250
O	 -0.695554	 -0.422406	 0.000602
C	 2.693673	 -0.616306	 -1.447937
H	 1.100789	 -1.985700	 -0.923465
H	 1.728308	 -1.104945	 0.427399
H	 2.444936	 -0.543572	 -2.498202
H	 3.479342	 -1.353030	 -1.332561
H	 3.078173	 0.345204	 -1.135071
C	 -1.852370	 0.402254	 0.000718
C	 -3.063338	 -0.501097	 -0.000437
H	 -1.831732	 1.039442	 -0.872158
H	 -1.832493	 1.038301	 0.874430
H	 -3.071944	 -1.133732	 -0.879113
H	 -3.966302	 0.097976	 -0.000483
H	 -3.072764	 -1.134834	 0.877435

2 4 11 13 F
