%nprocshared=4
%mem=2GB
#HF/6-31G* nosymm scf=tight opt=ModRedundant

Mol

0 1
O	 -2.042549	 -1.228399	 -0.269030
C	 -1.653912	 -0.146171	 0.050137
C	 -0.332303	 0.024011	 0.778412
C	 -2.438579	 1.106236	 -0.272369
C	 0.321368	 1.368742	 0.423043
H	 -0.477777	 -0.043935	 1.852937
H	 0.318609	 -0.787678	 0.472804
C	 1.671886	 1.567503	 1.112700
H	 -0.344475	 2.185312	 0.696810
H	 0.447720	 1.418194	 -0.654330
C	 2.328353	 2.900036	 0.754074
H	 1.539661	 1.507613	 2.190826
H	 2.336608	 0.751390	 0.839440
H	 1.701732	 3.737859	 1.046394
H	 2.503015	 2.975245	 -0.315169
H	 3.284873	 3.012264	 1.254576
H	 -3.277823	 0.863061	 -0.908988
H	 -1.806773	 1.843019	 -0.759671
H	 -2.802853	 1.554979	 0.648059

5 3 2 4 F
