%nprocshared=4
%mem=2GB
#HF/cc-pVTZ nosymm scf=tight opt=ModRedundant

Mol

0 1
H	 -0.124757	 3.634165	 6.203871
C	 -0.821110	 2.821257	 6.033171
C	 -1.061574	 2.605137	 4.542938
H	 -0.408364	 1.930073	 6.493225
H	 -1.744570	 3.062765	 6.549595
C	 -2.047479	 1.472799	 4.264061
H	 -0.117350	 2.390461	 4.055810
H	 -1.439426	 3.525290	 4.103200
C	 -2.312586	 1.237497	 2.780404
H	 -1.679903	 0.555166	 4.706403
H	 -2.993360	 1.699956	 4.747272
C	 -1.158526	 0.603377	 2.022431
H	 -3.158737	 0.565869	 2.659121
H	 -2.597183	 2.161110	 2.284963
C	 -1.180025	 0.697761	 0.509157
O	 -0.279282	 0.034988	 2.585582
C	 -2.285431	 -0.137488	 -0.145671
H	 -0.209921	 0.373472	 0.157623
H	 -1.304974	 1.741273	 0.232271
C	 -3.646545	 0.082747	 0.508954
H	 -2.348635	 0.118247	 -1.199806
H	 -2.034895	 -1.192387	 -0.096473
C	 -4.757412	 -0.737227	 -0.138149
H	 -3.900211	 1.137405	 0.459735
H	 -3.580878	 -0.166775	 1.564416
H	 -4.867876	 -0.486707	 -1.187777
H	 -4.549650	 -1.800049	 -0.072540
H	 -5.709585	 -0.556397	 0.346597

16 12 15 17 F
