%nprocshared=4
%mem=2GB
#HF/6-31G* nosymm scf=tight opt=ModRedundant

Mol

0 1
H	 -2.172150	 0.880146	 0.502514
C	 -2.018062	 -0.000025	 -0.114509
O	 -0.774054	 0.001095	 -0.743181
H	 -2.760490	 0.003458	 -0.901350
H	 -2.173624	 -0.884374	 0.496163
C	 -0.691806	 0.252433	 -2.134797
C	 0.804738	 0.173182	 -2.428203
C	 -1.438525	 -0.819609	 -2.935002
C	 -1.217906	 1.650212	 -2.476187
H	 1.185800	 -0.806461	 -2.162644
H	 1.339582	 0.912394	 -1.842642
H	 1.006967	 0.350840	 -3.479489
H	 -1.109987	 -1.809038	 -2.634796
H	 -1.242078	 -0.701999	 -3.995746
H	 -2.512625	 -0.760016	 -2.796030
H	 -0.734148	 2.395836	 -1.854033
H	 -1.011096	 1.886334	 -3.514940
H	 -2.290195	 1.730084	 -2.333185

6 3 2 5 F
