%nprocshared=4
%mem=2GB
#HF/cc-pVTZ nosymm scf=tight opt=ModRedundant

Mol

0 1
O	 1.150003	 -2.287004	 1.434295
C	 0.320627	 -1.774530	 0.763933
C	 -1.108633	 -2.225641	 0.667125
O	 0.550743	 -0.719877	 0.000412
H	 -1.764939	 -1.418993	 0.967101
H	 -1.260323	 -3.083878	 1.301122
H	 -1.341774	 -2.474370	 -0.360111
C	 1.863204	 -0.194033	 0.000410
H	 2.031502	 0.409177	 -0.879273
H	 2.524488	 -1.045142	 0.000793
H	 2.031291	 0.409823	 0.879686

2 4 8 9 F
