%nprocshared=4
%mem=2GB
#HF/cc-pVTZ nosymm scf=tight opt=ModRedundant

Mol

0 1
H	 -2.644180	 -0.653737	 1.272255
C	 -2.092774	 -0.380414	 0.391915
O	 -0.808934	 -0.154049	 0.752536
F	 -2.163230	 -1.351640	 -0.507133
F	 -2.627232	 0.691260	 -0.169301
C	 -0.143348	 0.910343	 0.183885
C	 -1.025834	 2.144757	 0.353347
Cl	 0.176233	 0.621907	 -1.536642
H	 0.802359	 1.107466	 0.657622
F	 -0.441256	 3.199276	 -0.155849
F	 -1.211749	 2.364295	 1.633408
F	 -2.193299	 1.999720	 -0.210782

6 3 2 4 F
