%nprocshared=4
%mem=2GB
#HF/cc-pVTZ nosymm scf=tight opt=ModRedundant

Mol

0 1
H	 1.875826	 1.673053	 -1.849381
C	 1.152328	 1.499923	 -1.063343
C	 1.322304	 0.099773	 -0.484271
H	 1.298229	 2.260589	 -0.304746
H	 0.163514	 1.633867	 -1.487191
C	 0.308557	 -0.162619	 0.622645
H	 2.320514	 -0.018521	 -0.081384
H	 1.193521	 -0.643347	 -1.261526
N	 -1.069352	 -0.004081	 0.085342
H	 0.371632	 -1.172932	 0.991288
H	 0.400391	 0.548875	 1.426218
O	 -1.584901	 -0.965470	 -0.377818
O	 -1.548033	 1.079343	 0.130056

7 3 6 9 F
