%nprocshared=4
%mem=2GB
#HF/cc-pVTZ nosymm scf=tight opt=ModRedundant

Mol

0 1
H	 -3.436473	 1.252944	 -1.023892
O	 -3.458596	 0.315260	 -0.960865
C	 -3.176635	 -0.080824	 0.355601
C	 -1.763371	 0.265266	 0.799691
H	 -3.321825	 -1.153438	 0.379502
H	 -3.895468	 0.357385	 1.043382
C	 -0.673390	 -0.426948	 -0.013392
H	 -1.631049	 1.344913	 0.747560
H	 -1.664587	 -0.001624	 1.849167
C	 0.737842	 -0.043159	 0.423759
H	 -0.806103	 -0.190518	 -1.063345
H	 -0.797221	 -1.503753	 0.074146
C	 1.824000	 -0.743224	 -0.390623
H	 0.850588	 1.033777	 0.343840
H	 0.868587	 -0.286314	 1.476203
C	 3.249750	 -0.268668	 -0.104474
H	 1.612380	 -0.620667	 -1.450362
H	 1.770976	 -1.810523	 -0.193945
C	 3.537236	 1.173292	 -0.515868
H	 3.940343	 -0.923012	 -0.627629
H	 3.462172	 -0.390085	 0.954561
H	 3.327937	 1.326259	 -1.569847
H	 4.579344	 1.420420	 -0.348002
H	 2.940960	 1.882247	 0.045776

17 13 10 7 F
