%nprocshared=4
%mem=2GB
#HF/cc-pVTZ nosymm scf=tight opt=ModRedundant

Mol

0 1
O	 -2.374409	 1.338660	 -0.336961
C	 -2.104891	 0.204655	 -0.107126
C	 -0.881910	 -0.448129	 -0.720509
C	 -2.949910	 -0.638219	 0.818225
C	 -1.155916	 -0.881662	 -2.166127
H	 -0.638324	 -1.316072	 -0.120965
H	 -0.038183	 0.233232	 -0.693377
C	 0.054048	 -1.557306	 -2.807998
H	 -2.007358	 -1.550445	 -2.164482
H	 -1.438366	 -0.016407	 -2.760984
C	 -0.143408	 -1.958892	 -4.270752
H	 0.320958	 -2.436900	 -2.227437
H	 0.903796	 -0.882961	 -2.746432
C	 -1.182312	 -3.054665	 -4.496229
H	 0.810559	 -2.297457	 -4.662706
H	 -0.413285	 -1.080143	 -4.850665
H	 -0.940430	 -3.943958	 -3.923308
H	 -1.220600	 -3.336805	 -5.542031
H	 -2.177297	 -2.737312	 -4.208876
H	 -3.440322	 -1.417144	 0.243099
H	 -3.694377	 -0.025850	 1.303346
H	 -2.331085	 -1.129829	 1.560495

6 3 2 1 F
