%nprocshared=1
%mem=2GB
#HF/6-31G* nosymm scf=tight 

Mol

0 1
H	 3.729471	 -0.928294	 -0.070608
O	 2.826016	 -1.159218	 0.122261
C	 2.077727	 -0.067559	 -0.035091
C	 0.624473	 -0.343591	 0.253101
O	 2.542965	 0.974826	 -0.363729
C	 -0.265902	 0.883932	 0.072916
H	 0.324016	 -1.163849	 -0.390541
H	 0.565024	 -0.726111	 1.268924
C	 -1.728698	 0.646073	 0.462102
H	 -0.209144	 1.219470	 -0.958188
H	 0.135059	 1.692851	 0.673903
C	 -2.641627	 0.214300	 -0.689023
H	 -2.118913	 1.568305	 0.886346
H	 -1.777008	 -0.095736	 1.258056
C	 -4.104955	 0.093315	 -0.264153
H	 -2.559767	 0.934661	 -1.500455
H	 -2.312039	 -0.739788	 -1.092099
H	 -4.731426	 -0.215104	 -1.095252
H	 -4.485887	 1.041668	 0.103740
H	 -4.223348	 -0.639591	 0.528985

16 12 9 6 F
7 4 6 10 F
5 3 4 7 F
1 2 3 5 F
