%nprocshared=4
%mem=2GB
#HF/cc-pVTZ nosymm scf=tight 
prop=(read,field)

Mol

0 1
H	 2.359779	 -1.179865	 -0.161167
O	 1.675667	 -0.613007	 -0.465662
C	 1.136025	 0.113327	 0.608229
C	 0.027794	 1.011963	 0.090239
H	 1.903124	 0.727904	 1.072580
H	 0.756315	 -0.561960	 1.369983
C	 -1.138585	 0.285664	 -0.581956
H	 0.464813	 1.708032	 -0.618287
H	 -0.340585	 1.603007	 0.925211
C	 -1.933831	 -0.631500	 0.343618
H	 -0.762999	 -0.285633	 -1.422116
H	 -1.808207	 1.035227	 -0.992368
H	 -2.789036	 -1.049737	 -0.174753
H	 -1.335477	 -1.461432	 0.700383
H	 -2.305283	 -0.092231	 1.209690

@grid.dat /N
