%nprocshared=4
%mem=2GB
#HF/cc-pVTZ nosymm scf=tight opt=ModRedundant

Mol

0 1
H	 -1.621138	 2.268525	 0.562876
C	 -1.693605	 1.455064	 1.272277
C	 -0.398100	 0.660300	 1.325482
H	 -2.520930	 0.828818	 0.966393
H	 -1.920231	 1.869947	 2.247170
C	 0.000000	 0.039916	 0.000014
H	 -0.466046	 -0.140689	 2.056714
H	 0.425949	 1.286482	 1.656739
C	 1.286532	 -0.763243	 0.000268
O	 -0.656865	 0.175010	 -0.980117
C	 2.547023	 0.087626	 -0.000114
H	 1.264245	 -1.421103	 -0.864380
H	 1.264290	 -1.420353	 0.865489
H	 2.584452	 0.725630	 -0.872909
H	 3.427035	 -0.544422	 0.000125
H	 2.584484	 0.726356	 0.872143

3 6 9 12 F
