%nprocshared=4
%mem=2GB
#HF/cc-pVTZ nosymm scf=tight opt=ModRedundant

Mol

0 1
O	 0.395927	 1.296676	 -0.000076
C	 0.503051	 0.114301	 -0.000074
C	 -0.701422	 -0.805636	 -0.000109
C	 1.858118	 -0.556123	 0.000212
C	 -1.143684	 -1.247989	 1.385823
H	 -1.506598	 -0.291255	 -0.518316
H	 -0.458583	 -1.663467	 -0.621876
H	 -1.408710	 -0.396756	 1.998515
H	 -2.005465	 -1.900819	 1.315095
H	 -0.351416	 -1.781139	 1.894049
H	 1.961106	 -1.191101	 -0.872843
H	 2.636688	 0.191085	 -0.000109
H	 1.961070	 -1.190284	 0.873873

6 3 2 1 F
