%nprocshared=4
%mem=2GB
#HF/cc-pVTZ nosymm scf=tight opt=ModRedundant

Mol

0 1
H	 -1.835082	 1.385983	 0.000069
C	 -1.300516	 0.441153	 -0.000028
O	 -0.006604	 0.654344	 -0.000106
O	 -1.828920	 -0.612308	 0.000113
C	 0.852093	 -0.482521	 -0.000161
C	 1.681400	 -0.434032	 1.261029
H	 1.470580	 -0.452987	 -0.885915
H	 0.247323	 -1.377010	 -0.046028
H	 2.278563	 0.468294	 1.295288
H	 2.347601	 -1.287891	 1.291947
H	 1.049153	 -0.460347	 2.139403

7 5 3 2 F
