%nprocshared=4
%mem=2GB
#HF/6-31G* nosymm scf=tight opt=ModRedundant

Mol

0 1
O	 1.214711	 1.306902	 -0.000018
C	 1.122059	 0.121804	 -0.000188
C	 -0.170150	 -0.657997	 -0.000612
O	 2.172624	 -0.688929	 0.000216
C	 -1.412532	 0.227344	 -0.000452
H	 -0.153702	 -1.313099	 -0.867402
H	 -0.153924	 -1.313811	 0.865644
C	 -1.517192	 1.082515	 -1.264215
H	 -1.396666	 0.866990	 0.876534
H	 -2.296373	 -0.395464	 0.096698
C	 -2.759848	 1.971747	 -1.272912
H	 -0.628804	 1.703972	 -1.357136
H	 -1.530090	 0.436798	 -2.139974
H	 -2.759311	 2.653457	 -0.427380
H	 -2.809886	 2.567473	 -2.178938
H	 -3.667029	 1.377211	 -1.216438
C	 3.452279	 -0.082609	 0.000533
H	 3.583069	 0.529321	 -0.880332
H	 4.163299	 -0.894027	 0.001117
H	 3.582335	 0.529955	 0.881077

9 5 3 6 F
