%nprocshared=4
%mem=2GB
#HF/cc-pVTZ nosymm scf=tight opt=ModRedundant

Mol

0 1
O	 -2.071633	 -1.227563	 -0.223463
C	 -1.652164	 -0.152425	 0.058082
C	 -0.327811	 0.006324	 0.778296
C	 -2.402515	 1.108629	 -0.298924
C	 0.833101	 0.111682	 -0.218002
H	 -0.348543	 0.885938	 1.413098
H	 -0.190135	 -0.864414	 1.406546
C	 2.187953	 0.254686	 0.469133
H	 0.675718	 0.961172	 -0.877769
H	 0.833123	 -0.772767	 -0.845787
C	 3.346798	 0.347163	 -0.517624
H	 2.180091	 1.138471	 1.101103
H	 2.343246	 -0.592747	 1.130407
H	 3.237823	 1.206475	 -1.170877
H	 3.399477	 -0.537735	 -1.142563
H	 4.293998	 0.443704	 -0.000039
H	 -3.240910	 0.874416	 -0.936711
H	 -1.747554	 1.818823	 -0.790984
H	 -2.760419	 1.579708	 0.610998

5 3 2 4 F
