%nprocshared=1
%mem=2GB
#HF/6-31G* nosymm scf=tight 

Mol

0 1
H	 -3.420663	 1.227371	 -1.044276
O	 -3.452007	 0.283848	 -0.965577
C	 -3.181085	 -0.079926	 0.364119
C	 -1.765924	 0.277073	 0.805136
H	 -3.327791	 -1.152017	 0.410903
H	 -3.905698	 0.375695	 1.036898
C	 -1.108607	 -0.795496	 1.674646
H	 -1.154203	 0.459186	 -0.078942
H	 -1.804003	 1.220786	 1.346595
C	 0.319013	 -0.437503	 2.092880
H	 -1.107460	 -1.738812	 1.137186
H	 -1.716562	 -0.952017	 2.564188
C	 0.968240	 -1.513129	 2.967876
H	 0.918181	 -0.272968	 1.200498
H	 0.311545	 0.507787	 2.634152
C	 2.367304	 -1.160467	 3.485953
H	 1.017203	 -2.447929	 2.411596
H	 0.321971	 -1.703228	 3.822285
C	 3.437142	 -1.043187	 2.398710
H	 2.674476	 -1.925095	 4.195376
H	 2.318885	 -0.229212	 4.046865
H	 3.499474	 -1.956413	 1.812816
H	 4.414470	 -0.865794	 2.837116
H	 3.234520	 -0.225000	 1.715571

20 16 13 17 F
17 13 10 7 F
13 10 7 11 F
11 7 4 3 F
1 2 3 5 F
