%nprocshared=1
%mem=2GB
#HF/6-31G* nosymm scf=tight 

Mol

0 1
O	 1.214711	 1.306902	 -0.000018
C	 1.122059	 0.121804	 -0.000188
C	 -0.170150	 -0.657997	 -0.000612
O	 2.172624	 -0.688929	 0.000216
C	 -1.412532	 0.227344	 -0.000452
H	 -0.153702	 -1.313099	 -0.867402
H	 -0.153924	 -1.313811	 0.865644
C	 -1.933352	 0.498552	 -1.412741
H	 -1.183452	 1.166258	 0.493985
H	 -2.188836	 -0.244650	 0.593751
C	 -3.178812	 1.383849	 -1.421756
H	 -1.151393	 0.970750	 -2.004051
H	 -2.158857	 -0.445580	 -1.904505
H	 -2.976163	 2.349251	 -0.967238
H	 -3.527234	 1.560879	 -2.434445
H	 -3.990998	 0.922529	 -0.867519
C	 3.452279	 -0.082609	 0.000533
H	 3.583069	 0.529321	 -0.880332
H	 4.163299	 -0.894027	 0.001117
H	 3.582335	 0.529955	 0.881077

9 5 8 12 F
1 2 3 6 F
1 2 4 17 F
