%nprocshared=1
%mem=2GB
#HF/6-31G* nosymm scf=tight opt=ModRedundant

Mol

0 1
O	 -1.276010	 1.052711	 -0.768302
C	 -1.204840	 0.067374	 -0.106123
C	 -2.388195	 -0.672128	 0.458071
O	 -0.067104	 -0.527208	 0.221609
H	 -2.388023	 -1.694060	 0.097175
H	 -3.300579	 -0.174919	 0.164318
H	 -2.315377	 -0.706351	 1.539059
C	 0.463020	 -1.541665	 -0.643130
C	 1.324801	 -2.430385	 0.236130
C	 1.240023	 -0.894114	 -1.778731
H	 -0.367814	 -2.104066	 -1.043041
H	 0.737370	 -2.858448	 1.040452
H	 1.745562	 -3.240812	 -0.349958
H	 2.140041	 -1.863276	 0.672507
H	 1.663247	 -1.657324	 -2.424028
H	 0.592713	 -0.266418	 -2.377867
H	 2.051611	 -0.289598	 -1.386438

8 4 2 1 F
