%nprocshared=1
%mem=2GB
#HF/6-31G* nosymm scf=tight 

Mol

0 1
O	 -1.276010	 1.052711	 -0.768302
C	 -1.204840	 0.067374	 -0.106123
C	 -2.388195	 -0.672128	 0.458071
O	 -0.067104	 -0.527208	 0.221609
H	 -2.388023	 -1.694060	 0.097175
H	 -3.300579	 -0.174919	 0.164318
H	 -2.315377	 -0.706351	 1.539059
C	 -0.107932	 -1.713527	 1.027157
C	 1.231570	 -1.780353	 1.739096
C	 -0.375175	 -2.923861	 0.146067
H	 -0.907401	 -1.600116	 1.744440
H	 1.389277	 -0.893467	 2.342262
H	 1.266178	 -2.648030	 2.389688
H	 2.043000	 -1.855683	 1.023163
H	 -0.384415	 -3.827859	 0.746665
H	 -1.335283	 -2.835855	 -0.346298
H	 0.399251	 -3.022310	 -0.607975

11 8 4 2 F
