%nprocshared=1
%mem=2GB
#HF/6-31G* nosymm scf=tight 
prop=(read,field)

Mol

0 1
O	 2.862447	 1.357397	 0.000267
C	 2.843585	 0.164752	 -0.000222
C	 1.546616	 -0.624429	 -0.000609
C	 4.124245	 -0.644611	 -0.000428
C	 0.291126	 0.242736	 0.000989
H	 1.558026	 -1.283696	 -0.867573
H	 1.558744	 -1.285901	 0.864672
C	 -0.994200	 -0.586539	 0.000262
H	 0.309239	 0.896492	 -0.865270
H	 0.309782	 0.894140	 0.869017
C	 -2.259752	 0.272594	 0.000494
H	 -1.004740	 -1.239950	 -0.870939
H	 -1.005098	 -1.241008	 0.870675
C	 -3.549664	 -0.549683	 -0.000374
H	 -2.250267	 0.926742	 -0.869574
H	 -2.250716	 0.925575	 0.871430
C	 -4.809468	 0.315520	 -0.000369
H	 -3.560394	 -1.201946	 -0.871156
H	 -3.561001	 -1.202893	 0.869711
H	 -4.844624	 0.956673	 -0.876632
H	 -5.706864	 -0.295528	 -0.001609
H	 -4.845838	 0.954890	 0.877144
H	 4.165489	 -1.288553	 -0.874074
H	 4.976339	 0.020796	 -0.001915
H	 4.166884	 -1.286144	 0.874930

@grid.dat /N
