%nprocshared=4
%mem=2GB
#HF/cc-pVTZ nosymm scf=tight opt=ModRedundant

Mol

0 1
H	 -3.436473	 1.252944	 -1.023892
O	 -3.458596	 0.315260	 -0.960865
C	 -3.176635	 -0.080824	 0.355601
C	 -1.763371	 0.265266	 0.799691
H	 -3.321825	 -1.153438	 0.379502
H	 -3.895468	 0.357385	 1.043382
C	 -1.697178	 0.988260	 2.141787
H	 -1.173486	 -0.648966	 0.845296
H	 -1.308352	 0.881065	 0.027591
C	 -0.270661	 1.298371	 2.587714
H	 -2.191809	 0.386891	 2.896511
H	 -2.262258	 1.914741	 2.072339
C	 -0.211662	 2.026443	 3.929161
H	 0.290109	 0.370363	 2.644512
H	 0.220516	 1.905746	 1.830286
C	 1.192670	 2.431001	 4.380862
H	 -0.668062	 1.403797	 4.695230
H	 -0.823345	 2.922151	 3.864578
C	 2.120590	 1.262454	 4.704289
H	 1.101935	 3.056624	 5.263550
H	 1.650077	 3.052838	 3.615670
H	 1.686266	 0.619251	 5.463057
H	 3.072035	 1.620079	 5.081247
H	 2.325252	 0.653192	 3.832211

7 4 3 2 F
