%nprocshared=1
%mem=2GB
#HF/6-31G* nosymm scf=tight 

Mol

0 1
O	 -2.385963	 -1.338287	 0.903282
C	 -1.688612	 -1.571378	 -0.036826
C	 -0.889235	 -0.467034	 -0.705952
C	 -1.539705	 -2.972308	 -0.586913
C	 0.379448	 -0.143569	 0.099626
H	 -1.521140	 0.413095	 -0.754654
H	 -0.622976	 -0.748930	 -1.720677
C	 1.631333	 -0.777471	 -0.511575
H	 0.482768	 0.934507	 0.149241
H	 0.263088	 -0.495696	 1.123449
C	 2.915987	 -0.544314	 0.291766
H	 1.766672	 -0.399098	 -1.523130
H	 1.471257	 -1.849544	 -0.605828
C	 3.373361	 0.914346	 0.347591
H	 3.708709	 -1.142521	 -0.150311
H	 2.780642	 -0.921148	 1.303579
H	 3.506512	 1.320010	 -0.651625
H	 4.322697	 0.999599	 0.867103
H	 2.660624	 1.545032	 0.868198
H	 -1.964440	 -3.019400	 -1.586236
H	 -2.050231	 -3.677835	 0.053696
H	 -0.491103	 -3.242555	 -0.671797

6 3 2 1 F
3 5 8 12 F
12 8 11 15 F
