%nprocshared=4
%mem=2GB
#HF/cc-pVTZ nosymm scf=tight opt=ModRedundant

Mol

0 1
H	 -0.610955	 -1.478162	 -0.562742
N	 -0.625934	 -0.663929	 -0.000707
C	 -1.811304	 -0.388186	 0.776441
C	 0.468494	 0.129045	 -0.002160
H	 -2.677383	 -0.273166	 0.135609
H	 -1.655514	 0.528523	 1.319090
H	 -2.006177	 -1.185281	 1.484045
C	 1.785715	 -0.615093	 0.000603
O	 0.413285	 1.323206	 0.000532
H	 1.866994	 -1.243310	 -0.878792
H	 2.591506	 0.100263	 0.006422
H	 1.860358	 -1.250360	 0.875522

3 2 4 9 F
