%nprocshared=4
%mem=2GB
#HF/cc-pVTZ nosymm scf=tight opt=ModRedundant

Mol

0 1
O	 -2.081319	 -0.951530	 -0.502732
N	 -1.613558	 0.006676	 0.014756
C	 -0.329345	 -0.171618	 0.743966
O	 -2.068523	 1.100482	 -0.024385
C	 -0.601552	 -0.766595	 2.119827
H	 0.114005	 0.807811	 0.811633
H	 0.271200	 -0.826821	 0.135455
C	 0.692267	 -0.968660	 2.904281
H	 -1.265637	 -0.105292	 2.664095
H	 -1.113117	 -1.714369	 1.998324
C	 0.448416	 -1.570382	 4.283755
H	 1.202545	 -0.015892	 3.010520
H	 1.358850	 -1.614846	 2.340793
H	 -0.188502	 -0.929103	 4.882750
H	 -0.033110	 -2.538946	 4.208050
H	 1.381034	 -1.704287	 4.818035

5 3 2 1 F
