%nprocshared=4
%mem=2GB
#HF/cc-pVTZ nosymm scf=tight opt=ModRedundant

Mol

0 1
H	 -2.644180	 -0.653737	 1.272255
C	 -2.092774	 -0.380414	 0.391915
O	 -0.808934	 -0.154049	 0.752536
F	 -2.163230	 -1.351640	 -0.507133
F	 -2.627232	 0.691260	 -0.169301
C	 0.085006	 0.250800	 -0.215074
C	 1.032701	 -0.916815	 -0.479324
Cl	 1.003450	 1.672561	 0.314637
H	 -0.397082	 0.506955	 -1.142232
F	 1.902673	 -0.600425	 -1.404563
F	 0.337261	 -1.941745	 -0.911985
F	 1.677482	 -1.283551	 0.593995

9 6 3 2 F
