%nprocshared=1
%mem=2GB
#HF/6-31G* nosymm scf=tight 

Mol

0 1
O	 -2.439739	 -0.935931	 -0.423848
C	 -1.921153	 0.064240	 -0.045697
C	 -2.624470	 1.379923	 0.150949
O	 -0.632575	 0.154573	 0.251549
H	 -2.168117	 2.136577	 -0.476876
H	 -3.669540	 1.273223	 -0.098610
H	 -2.519365	 1.700893	 1.180846
C	 0.160891	 -1.019931	 0.106212
C	 1.589627	 -0.672828	 0.480843
H	 0.089836	 -1.367806	 -0.916050
H	 -0.238459	 -1.792301	 0.749618
C	 2.630984	 -1.648172	 -0.071135
H	 1.647075	 -0.653640	 1.567243
H	 1.807462	 0.335299	 0.138080
C	 4.054857	 -1.284068	 0.347212
H	 2.398593	 -2.653658	 0.273964
H	 2.564289	 -1.669551	 -1.153934
H	 4.774024	 -1.989327	 -0.057065
H	 4.160770	 -1.286933	 1.428440
H	 4.326831	 -0.294334	 -0.008507

16 12 9 8 F
2 4 8 10 F
1 2 4 8 F
