%nprocshared=4
%mem=2GB
#HF/cc-pVTZ nosymm scf=tight opt=ModRedundant

Mol

0 1
O	 -2.071633	 -1.227563	 -0.223463
C	 -1.652164	 -0.152425	 0.058082
C	 -0.327811	 0.006324	 0.778296
C	 -2.402515	 1.108629	 -0.298924
C	 0.360033	 1.319395	 0.385689
H	 -0.478455	 -0.023034	 1.852339
H	 0.299387	 -0.830588	 0.498941
C	 0.829552	 1.327314	 -1.066110
H	 1.211496	 1.497868	 1.037495
H	 -0.333238	 2.137127	 0.550171
C	 1.503031	 2.636020	 -1.464703
H	 1.518705	 0.502785	 -1.226558
H	 -0.021031	 1.145944	 -1.716612
H	 2.379030	 2.827961	 -0.854114
H	 0.827025	 3.475691	 -1.344961
H	 1.821053	 2.612215	 -2.500414
H	 -3.240910	 0.874416	 -0.936711
H	 -1.747554	 1.818823	 -0.790984
H	 -2.760419	 1.579708	 0.610998

5 3 2 4 F
