%nprocshared=4
%mem=2GB
#HF/cc-pVTZ nosymm scf=tight opt=ModRedundant

Mol

0 1
H	 -3.034039	 -0.667848	 0.004703
O	 -2.240597	 -1.171748	 0.000934
C	 -1.159675	 -0.364500	 0.000370
C	 -0.215868	 -0.390551	 1.006831
C	 -1.022837	 0.512346	 -1.064745
H	 -0.321014	 -1.068092	 1.834443
C	 0.865246	 0.471110	 0.936411
H	 -1.775264	 0.509022	 -1.829453
C	 0.057099	 1.369226	 -1.134569
H	 1.600054	 0.455876	 1.719097
C	 1.006960	 1.344410	 -0.118137
C	 0.218409	 2.306196	 -2.304915
H	 1.850069	 2.007880	 -0.156035
H	 0.526627	 3.290613	 -1.975145
H	 -0.705277	 2.408511	 -2.858162
H	 0.976427	 1.937565	 -2.987677

5 3 2 1 F
