%nprocshared=4
%mem=2GB
#HF/cc-pVTZ nosymm scf=tight opt=ModRedundant

Mol

0 1
H	 -2.266619	 1.169943	 0.000098
O	 -1.438073	 1.611259	 0.000041
C	 -0.408657	 0.734701	 0.000005
C	 0.340411	 0.651023	 1.159015
C	 -0.105585	 -0.051861	 -1.105246
H	 0.074697	 1.274596	 1.989968
C	 1.405202	 -0.222043	 1.229334
C	 0.969549	 -0.920105	 -1.006419
C	 -0.924004	 0.040622	 -2.369303
H	 1.982215	 -0.281591	 2.132379
C	 1.726499	 -1.014436	 0.144295
H	 1.216689	 -1.534853	 -1.851981
H	 -0.895646	 1.039473	 -2.795697
H	 -0.546314	 -0.639523	 -3.119098
H	 -1.965113	 -0.216455	 -2.195150
H	 2.553406	 -1.695862	 0.191754

4 3 2 1 F
