%nprocshared=1
%mem=2GB
#HF/6-31G* nosymm scf=tight 

Mol

0 1
H	 -3.135461	 -1.215070	 0.001379
O	 -2.310168	 -0.871793	 -0.309793
C	 -2.026376	 0.340750	 0.341611
C	 -0.673256	 0.843270	 -0.132153
H	 -2.792215	 1.080697	 0.115987
H	 -2.013526	 0.200402	 1.421792
C	 0.486613	 -0.083066	 0.235839
H	 -0.715586	 0.970948	 -1.210718
H	 -0.508072	 1.829858	 0.297090
C	 1.084097	 0.226881	 1.609433
H	 1.258070	 -0.005809	 -0.523371
H	 0.139336	 -1.115545	 0.220783
C	 2.239372	 -0.702591	 1.979693
H	 1.432099	 1.257585	 1.625593
H	 0.307082	 0.155694	 2.368132
H	 3.047719	 -0.628219	 1.257936
H	 2.644524	 -0.458118	 2.956949
H	 1.915540	 -1.739393	 2.005902

14 10 7 11 F
2 3 4 8 F
1 2 3 4 F
