%nprocshared=1
%mem=2GB
#HF/6-31G* nosymm scf=tight opt=ModRedundant

Mol

0 1
O	 -0.116234	 -4.623725	 -2.071797
C	 0.225998	 -3.667037	 -2.697944
C	 0.284026	 -2.293852	 -2.051954
C	 0.647673	 -3.775418	 -4.146329
C	 1.557273	 -2.140247	 -1.204375
H	 -0.588529	 -2.192548	 -1.415803
H	 0.244423	 -1.514117	 -2.807249
C	 1.631333	 -0.777471	 -0.511575
H	 1.576008	 -2.941330	 -0.474101
H	 2.435276	 -2.269457	 -1.835375
C	 2.915987	 -0.544314	 0.291766
H	 0.771129	 -0.662704	 0.145390
H	 1.546637	 0.003667	 -1.264235
C	 3.373361	 0.914346	 0.347591
H	 3.708709	 -1.142521	 -0.150311
H	 2.780642	 -0.921148	 1.303579
H	 3.506512	 1.320010	 -0.651625
H	 4.322697	 0.999599	 0.867103
H	 2.660624	 1.545032	 0.868198
H	 -0.065098	 -3.247850	 -4.774735
H	 0.688144	 -4.814102	 -4.443448
H	 1.616594	 -3.309359	 -4.300553

12 8 11 15 F
