%nprocshared=1
%mem=2GB
#HF/6-31G* nosymm scf=tight 

Mol

0 1
O	 -0.209421	 0.422597	 0.931100
C	 0.486307	 0.169203	 0.000779
C	 1.608116	 -0.841643	 0.000302
O	 0.366075	 0.755600	 -1.182137
C	 2.990107	 -0.200498	 -0.000684
H	 1.468623	 -1.481519	 -0.865924
H	 1.469683	 -1.481289	 0.866878
H	 3.129736	 0.423364	 -0.875135
H	 3.757882	 -0.966877	 -0.001197
H	 3.130964	 0.423383	 0.873533
C	 -0.655171	 1.736839	 -1.329195
C	 -0.587442	 2.252773	 -2.751002
H	 -0.491277	 2.526862	 -0.609065
H	 -1.613182	 1.283782	 -1.113452
H	 0.379895	 2.698490	 -2.952881
H	 -1.352304	 3.006568	 -2.907293
H	 -0.748200	 1.448682	 -3.460123

2 4 11 13 F
11 4 2 3 F
