%nprocshared=1
%mem=2GB
#HF/6-31G* nosymm scf=tight opt=ModRedundant

Mol

0 1
H	 -1.379817	 0.914818	 -2.502390
O	 -1.738676	 1.598777	 -1.953506
C	 -0.896787	 1.789681	 -0.854078
C	 -0.793441	 0.596080	 0.058728
H	 -1.301395	 2.633104	 -0.306233
H	 0.102426	 2.079482	 -1.177517
C	 -1.530462	 -0.493172	 -0.025500
H	 -0.046664	 0.678815	 0.833300
H	 -1.092586	 -1.461565	 -0.186463
H	 -2.602122	 -0.450675	 0.050101

3 4 7 9 F
