%nprocshared=4
%mem=2GB
#HF/6-31G* nosymm scf=tight opt=ModRedundant

Mol

0 1
H	 2.054974	 -0.996389	 0.872606
C	 1.961204	 -0.220919	 0.102765
C	 0.692068	 0.589600	 0.160137
O	 2.825289	 -0.067956	 -0.698540
C	 -0.558097	 -0.297372	 0.091132
H	 0.711480	 1.309159	 -0.650010
H	 0.692054	 1.140326	 1.100100
C	 -1.850991	 0.512573	 -0.019058
H	 -0.476753	 -0.965681	 -0.762987
H	 -0.604799	 -0.930658	 0.975228
C	 -3.096943	 -0.368295	 -0.099594
H	 -1.800724	 1.150330	 -0.898172
H	 -1.931651	 1.177355	 0.838044
H	 -3.060452	 -1.020287	 -0.967456
H	 -3.996858	 0.233488	 -0.175704
H	 -3.191959	 -0.995686	 0.782074

6 3 5 9 F
