%nprocshared=4
%mem=2GB
#HF/cc-pVTZ nosymm scf=tight opt=ModRedundant

Mol

0 1
H	 7.740504	 -5.668464	 -0.709803
O	 7.114180	 -5.404450	 -0.061849
C	 7.188057	 -4.019020	 0.148861
C	 6.618074	 -3.199687	 -0.999398
H	 6.618963	 -3.826281	 1.048285
H	 8.215388	 -3.719637	 0.347381
C	 5.254063	 -3.676348	 -1.493480
H	 6.550964	 -2.162819	 -0.683867
H	 7.330250	 -3.234456	 -1.820369
C	 5.317336	 -5.040495	 -2.179000
H	 4.846380	 -2.944261	 -2.182571
H	 4.565426	 -3.731697	 -0.652052
C	 3.966867	 -5.601098	 -2.628682
H	 5.983496	 -4.978654	 -3.036108
H	 5.772483	 -5.750189	 -1.493695
C	 3.009841	 -5.968591	 -1.496077
H	 3.484619	 -4.861532	 -3.261933
H	 4.132151	 -6.473449	 -3.257043
C	 3.483501	 -7.168232	 -0.679428
H	 2.028556	 -6.185060	 -1.912837
H	 2.877186	 -5.121863	 -0.829400
C	 4.787405	 -7.768073	 -1.195101
H	 3.610487	 -6.868801	 0.357294
H	 2.710250	 -7.931867	 -0.682378
H	 5.589371	 -7.037552	 -1.174452
H	 5.096164	 -8.614511	 -0.592342
H	 4.682460	 -8.112344	 -2.218729

20 16 19 22 F
