%nprocshared=1
%mem=2GB
#HF/6-31G* nosymm scf=tight 

Mol

0 1
O	 -0.291628	 1.323815	 -0.000732
C	 -0.449655	 0.146360	 0.000961
C	 -1.783294	 -0.549321	 -0.000296
O	 0.550821	 -0.724572	 0.000672
H	 -1.863538	 -1.185371	 -0.874187
H	 -2.574672	 0.185258	 -0.002793
H	 -1.866414	 -1.182381	 0.875436
C	 0.205804	 -2.098341	 0.002869
H	 -0.367596	 -2.344211	 0.884978
H	 1.140462	 -2.637009	 0.001848
H	 -0.370703	 -2.346100	 -0.876675

2 4 8 9 F
