%nprocshared=1
%mem=2GB
#HF/6-31G* nosymm scf=tight 

Mol

0 1
O	 2.862325	 1.357334	 0.000267
C	 2.843464	 0.164689	 -0.000222
C	 1.546494	 -0.624492	 -0.000609
C	 4.124123	 -0.644674	 -0.000428
C	 0.291004	 0.242674	 0.000989
H	 1.557904	 -1.283758	 -0.867573
H	 1.558622	 -1.285963	 0.864672
C	 0.587378	 1.704024	 -0.340159
H	 -0.183491	 0.179837	 0.975174
H	 -0.423403	 -0.164352	 -0.707602
C	 -0.664182	 2.583414	 -0.340221
H	 1.307028	 2.104870	 0.372213
H	 1.064573	 1.759625	 -1.317533
C	 -0.375903	 4.046682	 -0.680451
H	 -1.141645	 2.529153	 0.636561
H	 -1.383948	 2.184149	 -1.052627
C	 -1.630932	 4.918794	 -0.678290
H	 0.342563	 4.447236	 0.031719
H	 0.100018	 4.102332	 -1.657314
H	 -2.111796	 4.911238	 0.295806
H	 -1.394379	 5.949934	 -0.922207
H	 -2.355593	 4.564608	 -1.406001
H	 4.165367	 -1.288615	 -0.874074
H	 4.976217	 0.020734	 -0.001915
H	 4.166763	 -1.286207	 0.874930

9 5 8 12 F
15 11 8 12 F
15 11 14 18 F
1 2 3 6 F
