%nprocshared=1
%mem=2GB
#HF/6-31G* nosymm scf=tight 

Mol

0 1
H	 -2.798360	 -0.862255	 -0.071053
N	 -1.863561	 -0.715187	 0.256814
C	 -1.344686	 0.554728	 -0.219830
H	 -1.300452	 -1.461917	 -0.101532
C	 0.081427	 0.741154	 0.254071
H	 -1.362155	 0.656231	 -1.305829
H	 -1.952773	 1.354456	 0.191809
O	 0.874168	 -0.245412	 -0.342030
H	 0.444037	 1.730782	 -0.023037
H	 0.121165	 0.653424	 1.337565
C	 0.163956	 -1.346523	 -0.811842
H	 0.875935	 -2.035222	 -1.245982
H	 -0.366587	 -1.851146	 -0.006322
H	 -0.557941	 -1.058607	 -1.573274

8 5 3 6 F
6 3 2 4 F
5 8 11 13 F
