%nprocshared=4
%mem=2GB
#HF/cc-pVTZ nosymm scf=tight opt=ModRedundant

Mol

0 1
O	 2.307617	 2.229281	 1.666027
C	 1.979813	 1.511622	 2.553506
C	 0.693670	 0.711466	 2.515804
C	 2.833290	 1.348186	 3.790878
C	 -0.134535	 0.907983	 1.253946
H	 0.955988	 -0.336128	 2.645435
H	 0.117749	 0.975582	 3.399865
C	 -1.418789	 0.083509	 1.260814
H	 0.466247	 0.647014	 0.390193
H	 -0.372610	 1.959953	 1.145250
C	 -2.258482	 0.271340	 0.000669
H	 -1.172443	 -0.970104	 1.372564
H	 -2.015300	 0.349106	 2.130810
C	 -3.544441	 -0.550271	 -0.000253
H	 -1.663142	 0.005866	 -0.869507
H	 -2.505899	 1.324114	 -0.111487
C	 -4.804551	 0.308747	 0.000556
H	 -3.553737	 -1.201524	 -0.870151
H	 -3.553831	 -1.203282	 0.868313
H	 -4.842050	 0.949078	 -0.874436
H	 -5.698404	 -0.304480	 -0.000254
H	 -4.842277	 0.947103	 0.876982
H	 3.117361	 0.308958	 3.914798
H	 3.718618	 1.959563	 3.708395
H	 2.271832	 1.635929	 4.672927

15 11 14 18 F
