%nprocshared=4
%mem=2GB
#HF/cc-pVTZ nosymm scf=tight opt=ModRedundant

Mol

0 1
H	 2.403746	 -3.209894	 -1.614286
C	 2.450327	 -2.397294	 -0.899011
C	 1.192367	 -1.538109	 -0.962178
H	 2.577986	 -2.832727	 0.086453
H	 3.338388	 -1.814411	 -1.119497
C	 1.215950	 -0.382441	 0.027187
H	 0.315794	 -2.145352	 -0.765607
H	 1.075966	 -1.144057	 -1.969030
N	 0.000002	 0.398953	 -0.040851
H	 1.307222	 -0.775608	 1.035284
H	 2.108051	 0.226290	 -0.147983
C	 -1.215959	 -0.382435	 0.027143
H	 -0.000012	 1.086078	 0.683841
C	 -2.451944	 0.502410	 -0.038737
H	 -1.221867	 -1.069392	 -0.813828
H	 -1.259993	 -0.999709	 0.929424
C	 -3.752217	 -0.292550	 0.005776
H	 -2.407325	 1.093801	 -0.946480
H	 -2.431979	 1.206234	 0.790023
H	 -3.817783	 -0.982946	 -0.828547
H	 -4.612613	 0.364348	 -0.042306
H	 -3.830160	 -0.871666	 0.919868

10 6 9 12 F
