%nprocshared=4
%mem=2GB
#HF/6-31G* nosymm scf=tight opt=ModRedundant

Mol

0 1
H	 -3.261111	 -0.295142	 1.469456
C	 -3.306842	 -0.277400	 0.373456
C	 -2.660244	 0.921717	 -0.272021
O	 -3.838538	 -1.161155	 -0.216482
C	 -2.804519	 2.194671	 0.573572
H	 -1.619819	 0.687024	 -0.464747
H	 -3.152036	 1.072073	 -1.232328
C	 -2.030921	 2.141613	 1.893432
H	 -2.457440	 3.039199	 -0.014299
H	 -3.859140	 2.378111	 0.773277
C	 -2.174472	 3.420928	 2.720209
H	 -0.978822	 1.961727	 1.682302
H	 -2.368289	 1.292696	 2.485093
C	 -1.386602	 3.370724	 4.031959
H	 -1.845956	 4.266215	 2.120794
H	 -3.227486	 3.591831	 2.940072
C	 -1.565935	 4.597894	 4.933050
H	 -0.328393	 3.238945	 3.811681
H	 -1.692510	 2.486932	 4.587878
C	 -1.003928	 5.898048	 4.355670
H	 -1.077271	 4.399631	 5.883759
H	 -2.622582	 4.728802	 5.157284
H	 0.048620	 5.791481	 4.106564
H	 -1.527677	 6.203125	 3.455898
H	 -1.092486	 6.707955	 5.073446

6 3 2 4 F
