%nprocshared=1
%mem=2GB
#HF/6-31G* nosymm scf=tight opt=ModRedundant

Mol

0 1
H	 -3.161837	 0.500524	 -0.000234
C	 -2.367097	 -0.232926	 -0.000000
O	 -1.158440	 0.455814	 -0.000122
H	 -2.468853	 -0.861886	 -0.882833
H	 -2.468942	 -0.861421	 0.883154
C	 -0.029776	 -0.365156	 0.000148
C	 0.204696	 -0.875688	 1.411191
H	 0.839949	 0.192247	 -0.350252
H	 -0.173383	 -1.200970	 -0.685928
C	 1.427100	 -1.787495	 1.507189
H	 0.321225	 -0.021686	 2.071315
H	 -0.684958	 -1.405213	 1.738022
H	 2.333288	 -1.268562	 1.207265
H	 1.570345	 -2.137280	 2.524035
H	 1.320288	 -2.661704	 0.870985

8 6 3 2 F
