%nprocshared=1
%mem=2GB
#HF/6-31G* nosymm scf=tight opt=ModRedundant

Mol

0 1
O	 -0.988096	 -1.408613	 0.050699
C	 -0.676749	 -0.249230	 -0.009274
C	 -1.746085	 0.827156	 -0.009539
N	 0.623947	 0.147590	 -0.102813
H	 -1.701500	 1.431508	 -0.908902
H	 -2.703425	 0.330732	 0.036390
H	 -1.647323	 1.487769	 0.845106
C	 1.660869	 -0.865656	 -0.104235
C	 1.078454	 1.498407	 0.144090
H	 2.445622	 -0.578365	 -0.795353
H	 1.241230	 -1.807603	 -0.411770
H	 2.100506	 -0.982426	 0.883948
H	 1.941930	 1.701029	 -0.478320
H	 0.320243	 2.224023	 -0.103966
H	 1.371424	 1.645175	 1.182088

8 4 2 3 F
