%nprocshared=4
%mem=2GB
#HF/cc-pVTZ nosymm scf=tight opt=ModRedundant

Mol

0 1
O	 -2.374409	 1.338660	 -0.336961
C	 -2.104891	 0.204655	 -0.107126
C	 -0.881910	 -0.448129	 -0.720509
C	 -2.949910	 -0.638219	 0.818225
C	 0.407760	 0.123484	 -0.118136
H	 -0.904258	 -0.250889	 -1.784796
H	 -0.914111	 -1.522215	 -0.571618
C	 1.659886	 -0.504112	 -0.727078
H	 0.407938	 1.195339	 -0.270956
H	 0.413899	 -0.039668	 0.956872
C	 2.976112	 -0.012882	 -0.121976
H	 1.666511	 -0.319166	 -1.798400
H	 1.604523	 -1.582364	 -0.604971
C	 3.288626	 1.458232	 -0.384727
H	 3.782669	 -0.617573	 -0.524619
H	 2.968294	 -0.194914	 0.949536
H	 3.297154	 1.670107	 -1.448976
H	 4.263301	 1.719342	 0.011000
H	 2.563471	 2.117027	 0.077248
H	 -3.440322	 -1.417144	 0.243099
H	 -3.694377	 -0.025850	 1.303346
H	 -2.331085	 -1.129829	 1.560495

6 3 2 1 F
