%nprocshared=4
%mem=2GB
#HF/cc-pVTZ nosymm scf=tight opt=ModRedundant

Mol

0 1
H	 -1.835082	 1.385983	 0.000069
C	 -1.300516	 0.441153	 -0.000028
O	 -0.006604	 0.654344	 -0.000106
O	 -1.828920	 -0.612308	 0.000113
C	 0.717119	 0.336242	 -1.185373
C	 2.170491	 0.665621	 -0.940591
H	 0.310944	 0.909023	 -2.006898
H	 0.577593	 -0.711822	 -1.409111
H	 2.294661	 1.716926	 -0.714073
H	 2.750492	 0.434463	 -1.826039
H	 2.562648	 0.087950	 -0.113258

5 3 2 4 F
