%nprocshared=4
%mem=2GB
#HF/cc-pVTZ nosymm scf=tight opt=ModRedundant

Mol

0 1
H	 2.824774	 -2.194498	 2.522768
C	 2.707686	 -1.785646	 1.526154
C	 1.421025	 -0.975451	 1.413279
H	 3.577028	 -1.170856	 1.318028
H	 2.715122	 -2.614841	 0.826586
C	 1.215950	 -0.382441	 0.027187
H	 1.423003	 -0.169511	 2.138691
H	 0.573192	 -1.610524	 1.659123
N	 0.000002	 0.398953	 -0.040851
H	 2.049818	 0.271563	 -0.209690
H	 1.232982	 -1.184917	 -0.716335
C	 -1.215959	 -0.382435	 0.027143
H	 -0.000012	 1.086078	 0.683841
C	 -2.451944	 0.502410	 -0.038737
H	 -1.221867	 -1.069392	 -0.813828
H	 -1.259993	 -0.999709	 0.929424
C	 -3.752217	 -0.292550	 0.005776
H	 -2.407325	 1.093801	 -0.946480
H	 -2.431979	 1.206234	 0.790023
H	 -3.817783	 -0.982946	 -0.828547
H	 -4.612613	 0.364348	 -0.042306
H	 -3.830160	 -0.871666	 0.919868

10 6 9 12 F
