%nprocshared=1
%mem=2GB
#HF/6-31G* nosymm scf=tight 

Mol

0 1
O	 3.225979	 0.970355	 -0.599647
C	 2.701189	 0.057885	 -0.047330
C	 1.245376	 -0.013843	 0.345420
O	 3.347903	 -1.046386	 0.304773
C	 0.541947	 -1.261570	 -0.184188
H	 1.204356	 0.047731	 1.427878
H	 0.766817	 0.890542	 -0.021683
C	 -0.960308	 -1.297631	 0.116518
H	 1.020746	 -2.145069	 0.227273
H	 0.690698	 -1.313039	 -1.257336
C	 -1.318726	 -1.417574	 1.600520
H	 -1.389754	 -2.144261	 -0.414064
H	 -1.434622	 -0.409664	 -0.298874
C	 -2.823210	 -1.560365	 1.839556
H	 -0.804088	 -2.278595	 2.024323
H	 -0.957841	 -0.547699	 2.144626
C	 -3.193566	 -1.675757	 3.319304
H	 -3.190193	 -2.437160	 1.308719
H	 -3.339406	 -0.704933	 1.406569
C	 -4.697401	 -1.821865	 3.549153
H	 -2.677807	 -2.529489	 3.753788
H	 -2.831386	 -0.798193	 3.850799
H	 -4.928177	 -1.901291	 4.607000
H	 -5.084408	 -2.710600	 3.058673
H	 -5.239121	 -0.966220	 3.155853
C	 4.728119	 -1.109107	 -0.004993
H	 4.882018	 -1.033965	 -1.071845
H	 5.068212	 -2.067527	 0.355250
H	 5.265056	 -0.311663	 0.488280

21 17 14 11 F
17 14 11 15 F
15 11 8 5 F
6 3 5 9 F
11 8 5 9 F
2 4 26 27 F
1 2 4 26 F
