%nprocshared=4
%mem=2GB
#HF/cc-pVTZ nosymm scf=tight opt=ModRedundant

Mol

0 1
H	 3.393641	 0.654595	 -0.700744
C	 2.683728	 0.468538	 0.094672
C	 1.322304	 0.099773	 -0.484271
H	 3.079002	 -0.330241	 0.711989
H	 2.624134	 1.364320	 0.702424
C	 0.308557	 -0.162619	 0.622645
H	 1.406783	 -0.786831	 -1.100332
H	 0.955282	 0.901134	 -1.113597
N	 -1.069352	 -0.004081	 0.085342
H	 0.371632	 -1.172932	 0.991288
H	 0.400391	 0.548875	 1.426218
O	 -1.584901	 -0.965470	 -0.377818
O	 -1.548033	 1.079343	 0.130056

7 3 6 9 F
