%nprocshared=1
%mem=2GB
#HF/6-31G* nosymm scf=tight opt=ModRedundant

Mol

0 1
H	 -1.836216	 1.387520	 -0.000064
C	 -1.301823	 0.443321	 -0.000031
O	 -0.003969	 0.658512	 0.000451
O	 -1.829879	 -0.616434	 -0.000857
C	 0.838147	 -0.409034	 -0.433570
C	 2.268802	 0.076387	 -0.344628
H	 0.567102	 -0.677515	 -1.445385
H	 0.665386	 -1.269056	 0.198735
H	 2.421308	 0.942770	 -0.977998
H	 2.944534	 -0.708652	 -0.667634
H	 2.520227	 0.348412	 0.674036

5 3 2 4 F
