%nprocshared=4
%mem=2GB
#HF/cc-pVTZ nosymm scf=tight opt=ModRedundant

Mol

0 1
O	 2.551119	 1.843716	 0.460427
C	 1.861808	 1.679704	 1.413349
C	 0.596667	 0.847300	 1.364848
C	 2.205547	 2.297020	 2.750132
C	 0.288398	 0.247429	 0.000314
H	 0.689205	 0.067000	 2.116937
H	 -0.222924	 1.477337	 1.702977
C	 -0.993089	 -0.581367	 -0.000217
H	 1.124325	 -0.366397	 -0.315216
H	 0.211524	 1.045237	 -0.729567
C	 -2.258482	 0.271340	 0.000669
H	 -1.002280	 -1.233920	 -0.870484
H	 -1.002061	 -1.235367	 0.868958
C	 -3.544441	 -0.550271	 -0.000253
H	 -2.250545	 0.925250	 -0.867923
H	 -2.250598	 0.923423	 0.870642
C	 -4.804551	 0.308747	 0.000556
H	 -3.553737	 -1.201524	 -0.870151
H	 -3.553831	 -1.203282	 0.868313
H	 -4.842050	 0.949078	 -0.874436
H	 -5.698404	 -0.304480	 -0.000254
H	 -4.842277	 0.947103	 0.876982
H	 2.321188	 1.523078	 3.500925
H	 3.120609	 2.862926	 2.667650
H	 1.402520	 2.947383	 3.079098

9 5 8 12 F
