%nprocshared=4
%mem=2GB
#HF/cc-pVTZ nosymm scf=tight opt=ModRedundant

Mol

0 1
H	 -2.661094	 0.833041	 3.604568
O	 -1.957879	 0.277469	 3.323453
C	 -1.505366	 0.675048	 2.056338
C	 -0.374127	 -0.242475	 1.638518
H	 -2.313312	 0.621801	 1.329591
H	 -1.156150	 1.705184	 2.082769
C	 0.196029	 0.106276	 0.266738
H	 -0.741519	 -1.263867	 1.640404
H	 0.406185	 -0.190819	 2.391088
C	 1.330220	 -0.826136	 -0.155230
H	 -0.601689	 0.074365	 -0.469021
H	 0.563110	 1.130356	 0.276439
C	 2.719700	 -0.407669	 0.328325
H	 1.339388	 -0.911200	 -1.239363
H	 1.119001	 -1.821953	 0.224128
C	 3.241564	 0.893452	 -0.276737
H	 3.418299	 -1.204729	 0.093035
H	 2.711776	 -0.323368	 1.411960
H	 3.254204	 0.841071	 -1.360784
H	 2.634460	 1.745075	 0.005842
H	 4.254264	 1.092401	 0.054971

4 7 10 14 F
