%nprocshared=1
%mem=2GB
#HF/6-31G* nosymm scf=tight 

Mol

0 1
O	 -1.915415	 -0.226468	 2.208522
C	 -0.891046	 0.385985	 2.206649
C	 0.378021	 -0.221375	 1.634907
C	 -0.810055	 1.799251	 2.739093
C	 0.379448	 -0.143569	 0.099626
H	 0.413919	 -1.260177	 1.944593
H	 1.255145	 0.280838	 2.032979
C	 1.631333	 -0.777471	 -0.511575
H	 -0.514810	 -0.636448	 -0.264733
H	 0.315065	 0.897049	 -0.214564
C	 2.915987	 -0.544314	 0.291766
H	 1.766672	 -0.399098	 -1.523130
H	 1.471257	 -1.849544	 -0.605828
C	 3.373361	 0.914346	 0.347591
H	 3.708709	 -1.142521	 -0.150311
H	 2.780642	 -0.921148	 1.303579
H	 3.506512	 1.320010	 -0.651625
H	 4.322697	 0.999599	 0.867103
H	 2.660624	 1.545032	 0.868198
H	 -0.182162	 1.820029	 3.625988
H	 -1.798612	 2.157340	 2.990708
H	 -0.353157	 2.459930	 2.007962

6 3 2 1 F
6 3 5 8 F
12 8 11 15 F
