%nprocshared=4
%mem=2GB
#HF/cc-pVTZ nosymm scf=tight opt=ModRedundant

Mol

0 1
H	 2.768805	 -1.138433	 1.086089
O	 3.462122	 -1.121183	 0.452967
C	 3.202512	 -2.038696	 -0.576617
C	 2.088646	 -1.598381	 -1.514758
H	 4.127013	 -2.130435	 -1.130568
H	 2.976337	 -3.019511	 -0.162735
C	 0.711687	 -1.518279	 -0.859458
H	 2.351480	 -0.631393	 -1.933100
H	 2.052257	 -2.301563	 -2.343377
C	 -0.385969	 -1.105300	 -1.838966
H	 0.746538	 -0.811677	 -0.036961
H	 0.460415	 -2.486566	 -0.429844
C	 -1.798981	 -1.080477	 -1.253274
H	 -0.149674	 -0.125780	 -2.247540
H	 -0.374978	 -1.793527	 -2.679616
C	 -2.041121	 -0.006551	 -0.194127
H	 -2.502597	 -0.927777	 -2.066991
H	 -2.030640	 -2.057244	 -0.834449
C	 -3.489218	 0.042606	 0.286507
H	 -1.766159	 0.964642	 -0.599895
H	 -1.393865	 -0.173036	 0.661645
C	 -4.219984	 1.311773	 -0.139038
H	 -4.022855	 -0.824300	 -0.093339
H	 -3.510372	 -0.038577	 1.370031
H	 -4.244251	 1.405725	 -1.219696
H	 -5.244345	 1.313233	 0.215630
H	 -3.732090	 2.196311	 0.257073

20 16 19 22 F
