%nprocshared=4
%mem=2GB
#HF/cc-pVTZ nosymm scf=tight opt=ModRedundant

Mol

0 1
H	 -1.176238	 -0.695446	 0.821031
N	 -0.625934	 -0.663929	 -0.000707
C	 -1.034764	 -1.463429	 -1.131527
C	 0.468494	 0.129045	 -0.002160
H	 -1.053531	 -2.516190	 -0.875929
H	 -0.326872	 -1.311160	 -1.928269
H	 -2.019459	 -1.172376	 -1.477507
C	 1.785715	 -0.615093	 0.000603
O	 0.413285	 1.323206	 0.000532
H	 1.866994	 -1.243310	 -0.878792
H	 2.591506	 0.100263	 0.006422
H	 1.860358	 -1.250360	 0.875522

3 2 4 9 F
