%nprocshared=4
%mem=2GB
#HF/cc-pVTZ nosymm scf=tight opt=ModRedundant

Mol

0 1
H	 -3.890654	 0.141220	 -1.418203
C	 -3.204706	 -0.502417	 -0.906817
C	 -2.105997	 -0.000418	 -0.398703
H	 -3.437906	 -1.545640	 -0.822536
O	 -1.189946	 -0.765863	 0.237511
H	 -1.866486	 1.044895	 -0.469990
C	 0.026572	 -0.995256	 -0.379403
C	 1.057223	 0.049888	 -0.004615
H	 -0.054361	 -1.010670	 -1.459674
H	 0.397526	 -1.952058	 -0.044198
F	 2.203233	 -0.234060	 -0.590375
F	 0.698147	 1.254887	 -0.392621
F	 1.266440	 0.094219	 1.288722

6 3 5 7 F
