%nprocshared=1
%mem=2GB
#HF/6-31G* nosymm scf=tight 

Mol

0 1
H	 2.709170	 1.682090	 -0.833594
O	 3.327559	 1.228467	 -1.387573
C	 3.557050	 -0.062568	 -0.882979
C	 2.382249	 -1.010100	 -1.099206
H	 4.427444	 -0.433619	 -1.408725
H	 3.813137	 -0.018255	 0.174960
C	 1.107857	 -0.600950	 -0.356649
H	 2.179881	 -1.070776	 -2.165382
H	 2.685184	 -2.004864	 -0.776650
C	 -0.036020	 -1.600401	 -0.550196
H	 0.793946	 0.380758	 -0.700269
H	 1.323450	 -0.506633	 0.707759
C	 -1.309753	 -1.282496	 0.241564
H	 -0.277920	 -1.666905	 -1.609398
H	 0.313988	 -2.587969	 -0.257104
C	 -2.037799	 -0.007733	 -0.193645
H	 -1.993068	 -2.123261	 0.141510
H	 -1.067045	 -1.215492	 1.301017
C	 -3.489788	 0.042957	 0.286558
H	 -2.017067	 0.064384	 -1.280144
H	 -1.513726	 0.868678	 0.179924
C	 -4.216917	 1.317354	 -0.141063
H	 -4.025645	 -0.823308	 -0.095450
H	 -3.513059	 -0.038752	 1.371301
H	 -4.239342	 1.411634	 -1.223113
H	 -5.243387	 1.322503	 0.212445
H	 -3.726170	 2.201406	 0.256408

14 10 7 4 F
14 10 13 16 F
10 7 4 8 F
8 4 3 2 F
20 16 19 22 F
4 3 2 1 F
