%nprocshared=4
%mem=2GB
#HF/6-31G* nosymm scf=tight opt=ModRedundant

Mol

0 1
H	 4.987567	 2.680562	 0.059915
C	 4.627447	 1.684961	 -0.180116
C	 3.209974	 1.468064	 0.347997
H	 4.662213	 1.572015	 -1.259642
H	 5.322286	 0.969043	 0.250534
C	 2.673661	 0.070033	 0.032258
H	 2.549505	 2.214389	 -0.081401
H	 3.200481	 1.621987	 1.425916
C	 1.262966	 -0.182852	 0.564474
H	 2.679007	 -0.087857	 -1.040442
H	 3.340408	 -0.672362	 0.465085
C	 0.169600	 0.576866	 -0.172154
H	 1.020228	 -1.240518	 0.473964
H	 1.202132	 0.042678	 1.626835
C	 -1.181045	 0.701995	 0.511084
O	 0.353628	 1.044293	 -1.255691
C	 -2.285934	 -0.139295	 -0.145128
H	 -1.449051	 1.751551	 0.493206
H	 -1.071135	 0.403303	 1.551943
C	 -3.651768	 0.085446	 0.506485
H	 -2.346596	 0.110469	 -1.202272
H	 -2.034737	 -1.195320	 -0.088721
C	 -4.759797	 -0.746382	 -0.137905
H	 -3.908762	 1.140117	 0.445781
H	 -3.588286	 -0.154158	 1.565709
H	 -4.868882	 -0.505166	 -1.191300
H	 -4.548009	 -1.809175	 -0.062213
H	 -5.715422	 -0.564821	 0.343442

16 12 15 17 F
