%nprocshared=4
%mem=2GB
#HF/cc-pVTZ nosymm scf=tight opt=ModRedundant

Mol

0 1
H	 -3.162190	 0.493205	 -0.000107
C	 -2.363908	 -0.234727	 0.000005
O	 -1.158738	 0.454634	 -0.000087
H	 -2.464314	 -0.863616	 -0.882153
H	 -2.464327	 -0.863359	 0.882345
C	 -0.028611	 -0.359694	 0.000037
C	 1.212847	 0.509314	 -0.000053
H	 -0.034155	 -1.007047	 -0.877198
H	 -0.034195	 -1.006836	 0.877430
C	 2.410753	 -0.186638	 -0.636468
H	 0.990542	 1.429187	 -0.529524
H	 1.441483	 0.785090	 1.023482
H	 2.211870	 -0.449992	 -1.669994
H	 3.282585	 0.455823	 -0.623330
H	 2.666009	 -1.098222	 -0.106442

11 7 6 8 F
