%nprocshared=4
%mem=2GB
#HF/cc-pVTZ nosymm scf=tight opt=ModRedundant

Mol

0 1
H	 2.596254	 -1.006988	 -1.824889
C	 1.876324	 -1.206664	 -1.041875
C	 1.322304	 0.099773	 -0.484271
H	 1.088696	 -1.820486	 -1.464053
H	 2.375344	 -1.783842	 -0.271690
C	 0.308557	 -0.162619	 0.622645
H	 0.842996	 0.667883	 -1.271829
H	 2.126674	 0.706455	 -0.086950
N	 -1.069352	 -0.004081	 0.085342
H	 0.371632	 -1.172932	 0.991288
H	 0.400391	 0.548875	 1.426218
O	 -1.584901	 -0.965470	 -0.377818
O	 -1.548033	 1.079343	 0.130056

7 3 6 9 F
