%nprocshared=4
%mem=2GB
#HF/6-31G* nosymm scf=tight opt=ModRedundant

Mol

0 1
H	 -3.161837	 0.500524	 -0.000234
C	 -2.367097	 -0.232926	 -0.000000
O	 -1.158440	 0.455814	 -0.000122
H	 -2.468853	 -0.861886	 -0.882833
H	 -2.468942	 -0.861421	 0.883154
C	 -0.029776	 -0.365156	 0.000148
C	 1.201903	 0.494728	 -0.223970
H	 -0.113416	 -1.118575	 -0.784239
H	 0.047355	 -0.896964	 0.949431
C	 2.491686	 -0.324484	 -0.239193
H	 1.084311	 1.026334	 -1.163240
H	 1.244043	 1.246378	 0.558300
H	 2.480041	 -1.067544	 -1.031752
H	 3.353933	 0.313821	 -0.400261
H	 2.640607	 -0.846593	 0.701885

8 6 3 2 F
