%nprocshared=4
%mem=2GB
#HF/cc-pVTZ nosymm scf=tight opt=ModRedundant

Mol

0 1
H	 2.011845	 3.004600	 -2.569638
N	 1.246848	 2.365155	 -2.608452
C	 0.932482	 1.843572	 -1.287624
H	 1.510082	 1.628382	 -3.229114
C	 -0.285961	 0.933912	 -1.339015
H	 0.721545	 2.687696	 -0.639652
H	 1.765173	 1.302770	 -0.835836
C	 -0.678115	 0.376691	 0.025731
H	 -1.113874	 1.489700	 -1.766879
H	 -0.084409	 0.109276	 -2.020070
C	 -1.900706	 -0.535531	 -0.022488
H	 -0.875455	 1.200929	 0.707378
H	 0.159876	 -0.172672	 0.448630
C	 -3.220513	 0.226854	 0.028039
H	 -1.865036	 -1.134397	 -0.928236
H	 -1.857948	 -1.236381	 0.806820
H	 -3.309098	 0.911849	 -0.808725
H	 -4.066838	 -0.449485	 -0.008086
H	 -3.301685	 0.809374	 0.939860

12 8 11 15 F
