%nprocshared=4
%mem=2GB
#HF/6-31G* nosymm scf=tight opt=ModRedundant

Mol

0 1
O	 1.698118	 1.117631	 0.641886
C	 1.705091	 0.115954	 0.001797
C	 0.594002	 -0.354984	 -0.904606
O	 2.721346	 -0.737485	 -0.000216
C	 -0.601160	 0.592583	 -0.941345
H	 1.018994	 -0.491339	 -1.895314
H	 0.300407	 -1.346305	 -0.570237
C	 -1.710616	 0.091830	 -1.867311
H	 -0.268815	 1.575068	 -1.261436
H	 -0.988869	 0.718383	 0.064719
C	 -2.917097	 1.030876	 -1.916864
H	 -1.314656	 -0.035726	 -2.873761
H	 -2.037936	 -0.894713	 -1.542538
C	 -4.025806	 0.529403	 -2.841277
H	 -2.592221	 2.016186	 -2.243606
H	 -3.314296	 1.158603	 -0.912346
H	 -3.668300	 0.424414	 -3.861757
H	 -4.866632	 1.215901	 -2.854814
H	 -4.395815	 -0.440276	 -2.520143
C	 4.024888	 -0.184556	 -0.001949
H	 4.179030	 0.422472	 -0.882452
H	 4.701782	 -1.024608	 -0.003642
H	 4.181981	 0.421185	 0.878906

1 2 4 20 F
