%nprocshared=4
%mem=2GB
#HF/cc-pVTZ nosymm scf=tight opt=ModRedundant

Mol

0 1
H	 2.674121	 1.943520	 -0.055502
O	 3.383411	 1.546321	 -0.525576
C	 3.589165	 0.233123	 -0.075631
C	 2.507383	 -0.738121	 -0.524094
H	 4.542566	 -0.073225	 -0.484479
H	 3.682421	 0.213700	 1.008517
C	 1.127119	 -0.455129	 0.064664
H	 2.453559	 -0.718508	 -1.608472
H	 2.820306	 -1.740441	 -0.241550
C	 0.074892	 -1.469301	 -0.381554
H	 0.812252	 0.542450	 -0.222909
H	 1.190827	 -0.462141	 1.151484
C	 -1.311023	 -1.277304	 0.237018
H	 -0.009134	 -1.443031	 -1.465287
H	 0.427768	 -2.465715	 -0.130347
C	 -2.041121	 -0.006551	 -0.194127
H	 -1.924098	 -2.134417	 -0.027602
H	 -1.224865	 -1.292199	 1.321228
C	 -3.489218	 0.042606	 0.286507
H	 -2.022185	 0.066287	 -1.279394
H	 -1.518764	 0.869305	 0.178730
C	 -4.219984	 1.311773	 -0.139038
H	 -4.022855	 -0.824300	 -0.093339
H	 -3.510372	 -0.038577	 1.370031
H	 -4.244251	 1.405725	 -1.219696
H	 -5.244345	 1.313233	 0.215630
H	 -3.732090	 2.196311	 0.257073

10 13 16 20 F
