%nprocshared=1
%mem=2GB
#HF/6-31G* nosymm scf=tight opt=ModRedundant

Mol

0 1
H	 2.591676	 2.013956	 0.335017
O	 3.341076	 1.666752	 -0.126416
C	 3.569581	 0.339145	 0.272707
C	 2.539767	 -0.640285	 -0.279495
H	 4.553106	 0.084646	 -0.100901
H	 3.608576	 0.269204	 1.359154
C	 1.630625	 -1.254835	 0.787584
H	 1.935280	 -0.123722	 -1.020524
H	 3.072219	 -1.433617	 -0.801497
C	 0.644650	 -2.273622	 0.209011
H	 1.081432	 -0.462340	 1.288287
H	 2.242056	 -1.741423	 1.547666
C	 -0.232350	 -2.982525	 1.247600
H	 0.007887	 -1.779833	 -0.522803
H	 1.206992	 -3.027069	 -0.338518
C	 -1.231510	 -2.077148	 1.973170
H	 -0.783690	 -3.774885	 0.745599
H	 0.405183	 -3.475809	 1.979761
C	 -2.154106	 -2.846652	 2.920859
H	 -1.834979	 -1.546746	 1.237908
H	 -0.702601	 -1.314904	 2.540217
C	 -3.148201	 -1.944426	 3.651221
H	 -2.698661	 -3.602062	 2.358450
H	 -1.552500	 -3.385060	 3.650293
H	 -3.787202	 -1.416126	 2.949225
H	 -3.788689	 -2.519037	 4.313212
H	 -2.634029	 -1.200145	 4.252916

8 4 3 2 F
