%nprocshared=1
%mem=2GB
#HF/6-31G* nosymm scf=tight 

Mol

0 1
H	 -3.407059	 -1.043082	 0.000000
O	 -3.119761	 -0.140267	 0.000000
C	 -1.777559	 -0.059267	 0.000000
C	 -1.107319	 1.143210	 0.204525
C	 -1.067087	 -1.233740	 -0.214262
H	 -1.665549	 2.048942	 0.369869
C	 0.271511	 1.166328	 0.193948
H	 -1.606765	 -2.148566	 -0.369545
C	 0.311620	 -1.194481	 -0.221996
H	 0.801607	 2.086998	 0.350362
C	 0.997427	 -0.001089	 -0.019236
H	 0.862669	 -2.104345	 -0.387991
C	 2.473295	 0.025398	 -0.030250
O	 3.136305	 1.002124	 0.134618
H	 2.951281	 -0.944047	 -0.205956

7 11 13 14 F
