%nprocshared=4
%mem=2GB
#HF/cc-pVTZ nosymm scf=tight opt=ModRedundant

Mol

0 1
H	 -1.088256	 -1.364742	 0.152233
O	 -1.432053	 -0.565244	 -0.200812
C	 -0.727158	 0.534527	 0.310686
C	 0.680222	 0.664433	 -0.252229
H	 -1.306802	 1.408001	 0.044211
H	 -0.690821	 0.490158	 1.397609
C	 1.782031	 0.422081	 0.775063
H	 0.788785	 -0.031712	 -1.077352
H	 0.784913	 1.664052	 -0.665086
H	 1.746352	 -0.588709	 1.166412
H	 2.761606	 0.558923	 0.333182
H	 1.698925	 1.110071	 1.610958

8 4 3 2 F
