%nprocshared=4
%mem=2GB
#HF/cc-pVTZ nosymm scf=tight opt=ModRedundant

Mol

0 1
O	 2.924521	 -1.024750	 -0.447347
C	 2.574127	 -2.072921	 -0.023620
C	 3.467399	 -3.261002	 0.227087
O	 1.317782	 -2.342573	 0.292610
C	 4.929160	 -3.004122	 -0.117182
H	 3.337200	 -3.537960	 1.266267
H	 3.069149	 -4.087776	 -0.352716
C	 5.520134	 -1.774608	 0.574109
H	 5.031901	 -2.905782	 -1.192284
H	 5.507014	 -3.877618	 0.158679
C	 5.229583	 -1.670903	 2.070515
H	 5.124623	 -0.890654	 0.082823
H	 6.595793	 -1.751684	 0.413759
C	 5.509539	 -2.968489	 2.823962
H	 5.832714	 -0.872105	 2.495986
H	 4.193093	 -1.389437	 2.231769
C	 4.544103	 -4.096471	 2.471312
H	 5.463121	 -2.779449	 3.893751
H	 6.527284	 -3.291438	 2.617166
C	 4.829066	 -5.388761	 3.229308
H	 3.526739	 -3.775326	 2.677605
H	 4.591330	 -4.288558	 1.402795
H	 4.126843	 -6.167932	 2.955885
H	 4.754794	 -5.238176	 4.301183
H	 5.828133	 -5.754847	 3.017049
C	 0.824678	 -3.623490	 -0.043565
H	 -0.139967	 -3.792406	 0.411591
H	 1.544729	 -4.329140	 0.337866
H	 0.731980	 -3.727573	 -1.114467

1 2 4 26 F
