%nprocshared=4
%mem=2GB
#HF/cc-pVTZ nosymm scf=tight opt=ModRedundant

Mol

0 1
H	 0.048256	 -0.204856	 0.559472
N	 -0.625934	 -0.663929	 -0.000707
C	 -1.978635	 -0.158664	 0.001017
C	 -0.227138	 -1.730831	 -0.728213
H	 -2.519057	 -0.493535	 -0.876362
H	 -1.938890	 0.917202	 -0.004137
H	 -2.514266	 -0.485137	 0.884506
C	 1.237015	 -2.082092	 -0.580939
O	 -0.961039	 -2.351236	 -1.439242
H	 1.467391	 -2.317670	 0.451548
H	 1.456054	 -2.935460	 -1.201303
H	 1.859235	 -1.247369	 -0.882103

4 2 3 5 F
