%nprocshared=4
%mem=2GB
#HF/6-31G* nosymm scf=tight opt=ModRedundant

Mol

0 1
O	 1.667502	 0.388415	 0.437748
C	 2.701189	 0.057885	 -0.047330
C	 3.449267	 0.808941	 -1.122077
O	 3.347903	 -1.046386	 0.304773
C	 2.749210	 2.096127	 -1.552413
H	 4.448299	 0.996484	 -0.742664
H	 3.573455	 0.131273	 -1.962934
C	 3.440977	 2.815812	 -2.715171
H	 2.671756	 2.764426	 -0.700066
H	 1.730719	 1.856734	 -1.838404
C	 4.827597	 3.379595	 -2.391840
H	 2.799299	 3.633711	 -3.034568
H	 3.515167	 2.140874	 -3.566619
C	 5.428065	 4.181867	 -3.548040
H	 4.758532	 4.015646	 -1.510654
H	 5.509279	 2.572467	 -2.133332
C	 6.815927	 4.745707	 -3.238116
H	 4.757598	 5.000417	 -3.804330
H	 5.487453	 3.549504	 -4.432511
C	 7.406862	 5.548735	 -4.396409
H	 6.758589	 5.377058	 -2.353950
H	 7.488642	 3.928612	 -2.985941
H	 8.390221	 5.934956	 -4.146517
H	 6.774084	 6.394576	 -4.650063
H	 7.509143	 4.935055	 -5.287032
C	 4.728119	 -1.109107	 -0.004993
H	 4.882018	 -1.033965	 -1.071845
H	 5.068212	 -2.067527	 0.355250
H	 5.265056	 -0.311663	 0.488280

1 2 4 26 F
