%nprocshared=4
%mem=2GB
#HF/cc-pVTZ nosymm scf=tight opt=ModRedundant

Mol

0 1
O	 -2.081319	 -0.951530	 -0.502732
N	 -1.613558	 0.006676	 0.014756
C	 -0.329345	 -0.171618	 0.743966
O	 -2.068523	 1.100482	 -0.024385
C	 0.835904	 0.041968	 -0.213982
H	 -0.346048	 -1.174374	 1.137184
H	 -0.333613	 0.555559	 1.538590
C	 1.971828	 -0.938994	 0.064505
H	 0.482104	 -0.079622	 -1.231135
H	 1.192570	 1.060419	 -0.112571
C	 3.154893	 -0.741710	 -0.876727
H	 1.601633	 -1.955742	 -0.028325
H	 2.304300	 -0.823989	 1.091950
H	 2.859777	 -0.883748	 -1.910375
H	 3.566199	 0.257203	 -0.783361
H	 3.946053	 -1.448196	 -0.657401

9 5 3 2 F
