%nprocshared=4
%mem=2GB
#HF/cc-pVTZ nosymm scf=tight 
prop=(read,field)

Mol

0 1
H	 -2.122788	 0.067975	 0.000040
C	 -1.207832	 -0.484644	 0.000033
C	 -1.200234	 -1.864744	 0.000003
C	 0.000000	 0.180297	 0.000046
H	 -2.128939	 -2.400488	 -0.000006
C	 0.000000	 -2.551724	 -0.000013
N	 0.000000	 1.644943	 0.000076
C	 1.207832	 -0.484644	 0.000033
H	 0.000000	 -3.624723	 -0.000032
C	 1.200234	 -1.864744	 0.000003
O	 1.050559	 2.194486	 -0.000073
O	 -1.050559	 2.194486	 -0.000074
H	 2.122788	 0.067975	 0.000040
H	 2.128939	 -2.400488	 -0.000006

@grid.dat /N
