%nprocshared=1
%mem=2GB
#HF/6-31G* nosymm scf=tight 

Mol

0 1
O	 -2.439739	 -0.935931	 -0.423848
C	 -1.921153	 0.064240	 -0.045697
C	 -2.624470	 1.379923	 0.150949
O	 -0.632575	 0.154573	 0.251549
H	 -2.168117	 2.136577	 -0.476876
H	 -3.669540	 1.273223	 -0.098610
H	 -2.519365	 1.700893	 1.180846
C	 0.160891	 -1.019931	 0.106212
C	 1.589627	 -0.672828	 0.480843
H	 0.089836	 -1.367806	 -0.916050
H	 -0.238459	 -1.792301	 0.749618
C	 2.564280	 -1.846494	 0.367004
H	 1.578782	 -0.305252	 1.504905
H	 1.926218	 0.150558	 -0.143656
C	 3.987035	 -1.468785	 0.777009
H	 2.213340	 -2.665590	 0.991522
H	 2.565497	 -2.214302	 -0.653816
H	 4.658532	 -2.316708	 0.686716
H	 4.022507	 -1.127150	 1.807691
H	 4.376436	 -0.670827	 0.151144

16 12 9 8 F
2 4 8 10 F
1 2 4 8 F
