%nprocshared=4
%mem=2GB
#HF/6-31G* nosymm scf=tight opt=ModRedundant

Mol

0 1
H	 -3.420663	 1.227371	 -1.044276
O	 -3.452007	 0.283848	 -0.965577
C	 -3.181085	 -0.079926	 0.364119
C	 -1.765924	 0.277073	 0.805136
H	 -3.327791	 -1.152017	 0.410903
H	 -3.905698	 0.375695	 1.036898
C	 -0.677594	 -0.417312	 -0.014550
H	 -1.637766	 1.358238	 0.744969
H	 -1.659588	 0.017670	 1.857098
C	 0.344783	 -1.157763	 0.850120
H	 -0.171349	 0.318968	 -0.631249
H	 -1.145780	 -1.120458	 -0.701413
C	 1.427594	 -1.855211	 0.022368
H	 0.801403	 -0.452224	 1.540143
H	 -0.168013	 -1.897015	 1.464246
C	 2.425038	 -2.684607	 0.839291
H	 1.970952	 -1.111563	 -0.558534
H	 0.945144	 -2.509983	 -0.700358
C	 3.315052	 -1.866340	 1.776691
H	 3.059896	 -3.236153	 0.150057
H	 1.883827	 -3.431935	 1.416173
H	 3.859659	 -1.101924	 1.228778
H	 4.044976	 -2.502442	 2.268040
H	 2.741073	 -1.371344	 2.553023

11 7 4 3 F
