%nprocshared=4
%mem=2GB
#HF/6-31G* nosymm scf=tight opt=ModRedundant

Mol

0 1
H	 2.824758	 -2.203297	 2.542281
C	 2.709427	 -1.792172	 1.544571
C	 1.418765	 -0.982351	 1.429054
H	 3.579710	 -1.174948	 1.339948
H	 2.720329	 -2.621433	 0.842820
C	 1.217350	 -0.386724	 0.039429
H	 1.416503	 -0.175118	 2.154836
H	 0.570649	 -1.620242	 1.672332
N	 0.000003	 0.397874	 -0.023260
H	 2.050964	 0.270529	 -0.193100
H	 1.236489	 -1.186709	 -0.708257
C	 -1.217365	 -0.386708	 0.039277
H	 -0.000031	 1.072115	 0.718656
C	 -2.452633	 0.504241	 -0.042481
H	 -1.215291	 -1.074557	 -0.802042
H	 -1.269739	 -1.003477	 0.942735
C	 -3.758029	 -0.289423	 -0.010781
H	 -2.394220	 1.093569	 -0.952170
H	 -2.440793	 1.210787	 0.785871
H	 -3.816659	 -0.981993	 -0.845726
H	 -4.617837	 0.370165	 -0.069296
H	 -3.847478	 -0.867502	 0.904682

10 6 9 12 F
