%nprocshared=1
%mem=2GB
#HF/6-31G* nosymm scf=tight 

Mol

0 1
H	 -2.646374	 -0.642757	 1.268656
C	 -2.083525	 -0.384536	 0.393091
O	 -0.807605	 -0.127164	 0.768327
F	 -2.118945	 -1.383102	 -0.486752
F	 -2.621877	 0.670592	 -0.209486
C	 0.084052	 0.273579	 -0.209957
C	 -0.139460	 1.763868	 -0.431864
Cl	 -0.179880	 -0.627274	 -1.711961
H	 1.108443	 0.125208	 0.083954
F	 0.688631	 2.221533	 -1.346712
F	 0.103274	 2.401870	 0.695731
F	 -1.367954	 2.029983	 -0.803291

10 7 6 9 F
6 3 2 4 F
