%nprocshared=1
%mem=2GB
#HF/6-31G* nosymm scf=tight 

Mol

0 1
H	 2.168912	 2.716896	 -1.017497
O	 2.978105	 2.310723	 -1.291908
C	 3.416461	 1.413344	 -0.303673
C	 2.581531	 0.139384	 -0.235516
H	 4.438385	 1.167206	 -0.562059
H	 3.437818	 1.900150	 0.670669
C	 1.124054	 0.371452	 0.170408
H	 2.616805	 -0.348371	 -1.206194
H	 3.052006	 -0.536634	 0.476538
C	 0.326841	 -0.931130	 0.282431
H	 0.650610	 1.025197	 -0.556802
H	 1.093299	 0.892434	 1.127472
C	 -1.117096	 -0.762516	 0.769210
H	 0.324706	 -1.433699	 -0.683109
H	 0.846008	 -1.596669	 0.968889
C	 -2.037799	 -0.007733	 -0.193645
H	 -1.535792	 -1.751107	 0.945839
H	 -1.114369	 -0.259170	 1.734856
C	 -3.489788	 0.042957	 0.286558
H	 -2.000669	 -0.483194	 -1.172761
H	 -1.679079	 1.008967	 -0.334863
C	 -4.216917	 1.317354	 -0.141063
H	 -4.025645	 -0.823308	 -0.095450
H	 -3.513059	 -0.038752	 1.371301
H	 -4.239342	 1.411634	 -1.223113
H	 -5.243387	 1.322503	 0.212445
H	 -3.726170	 2.201406	 0.256408

14 10 7 4 F
14 10 13 16 F
10 7 4 8 F
8 4 3 2 F
10 13 16 20 F
4 3 2 1 F
