%nprocshared=4
%mem=2GB
#HF/cc-pVTZ nosymm scf=tight opt=ModRedundant

Mol

0 1
O	 -0.694481	 1.313155	 -0.204815
C	 -0.862519	 0.151932	 -0.046791
C	 -2.171428	 -0.477048	 0.339095
O	 0.085519	 -0.757083	 -0.192238
H	 -2.467997	 -1.191667	 -0.417688
H	 -2.923379	 0.287970	 0.444097
H	 -2.053854	 -1.015120	 1.270901
C	 0.422547	 -1.190890	 -1.504756
C	 1.432797	 -0.269927	 -2.156768
H	 -0.476322	 -1.263556	 -2.096845
H	 0.834943	 -2.179410	 -1.368704
H	 1.714711	 -0.667561	 -3.125201
H	 1.017530	 0.717787	 -2.302907
H	 2.325738	 -0.189651	 -1.548650

8 4 2 1 F
