%nprocshared=4
%mem=2GB
#HF/cc-pVTZ nosymm scf=tight opt=ModRedundant

Mol

0 1
H	 -3.498985	 1.253143	 -1.010443
O	 -3.458596	 0.315260	 -0.960865
C	 -3.176635	 -0.080824	 0.355601
C	 -1.763371	 0.265266	 0.799691
H	 -3.321825	 -1.153438	 0.379502
H	 -3.895468	 0.357385	 1.043382
C	 -1.673095	 0.766263	 2.238154
H	 -1.129316	 -0.611311	 0.675385
H	 -1.372220	 1.020495	 0.122182
C	 -2.335688	 2.125921	 2.443751
H	 -0.630943	 0.820981	 2.532836
H	 -2.137627	 0.036002	 2.896512
C	 -3.732107	 2.206128	 1.830050
H	 -2.385672	 2.335973	 3.507832
H	 -1.709688	 2.902227	 2.008628
C	 -3.768766	 2.138542	 0.302327
H	 -4.216018	 3.122892	 2.159023
H	 -4.331533	 1.390312	 2.224706
C	 -3.130061	 3.331433	 -0.404928
H	 -4.804986	 2.062476	 -0.012692
H	 -3.284801	 1.222955	 -0.027670
H	 -3.590239	 4.262582	 -0.089852
H	 -3.251299	 3.251381	 -1.479235
H	 -2.068185	 3.402481	 -0.202498

7 4 3 2 F
