%nprocshared=1
%mem=2GB
#HF/6-31G* nosymm scf=tight 

Mol

0 1
O	 -2.042549	 -1.228399	 -0.269030
C	 -1.653912	 -0.146171	 0.050137
C	 -0.332303	 0.024011	 0.778412
C	 -2.438579	 1.106236	 -0.272369
C	 -0.146316	 -1.069992	 1.841633
H	 0.495849	 0.001191	 0.075542
H	 -0.343425	 0.996936	 1.257178
C	 1.160692	 -0.917522	 2.621064
H	 -0.169397	 -2.050320	 1.368868
H	 -0.988838	 -1.034587	 2.525771
C	 1.344024	 -1.998899	 3.685123
H	 1.999657	 -0.944568	 1.929087
H	 1.183673	 0.062034	 3.092772
H	 1.359357	 -2.989592	 3.239764
H	 0.536287	 -1.975203	 4.410687
H	 2.276791	 -1.864044	 4.223441
H	 -3.277823	 0.863061	 -0.908988
H	 -1.806773	 1.843019	 -0.759671
H	 -2.802853	 1.554979	 0.648059

11 8 5 9 F
9 5 3 2 F
