%nprocshared=4
%mem=2GB
#HF/cc-pVTZ nosymm scf=tight opt=ModRedundant

Mol

0 1
O	 -0.694481	 1.313155	 -0.204815
C	 -0.862519	 0.151932	 -0.046791
C	 -2.171428	 -0.477048	 0.339095
O	 0.085519	 -0.757083	 -0.192238
H	 -2.467997	 -1.191667	 -0.417688
H	 -2.923379	 0.287970	 0.444097
H	 -2.053854	 -1.015120	 1.270901
C	 -0.091046	 -1.781008	 -1.164289
C	 0.356756	 -1.330945	 -2.539358
H	 -1.125191	 -2.088059	 -1.173255
H	 0.516240	 -2.600981	 -0.811304
H	 0.270385	 -2.155922	 -3.237501
H	 -0.257200	 -0.516380	 -2.898419
H	 1.391019	 -1.009282	 -2.518711

8 4 2 1 F
