%nprocshared=4
%mem=2GB
#HF/cc-pVTZ nosymm scf=tight opt=ModRedundant

Mol

0 1
O	 0.447586	 1.150655	 -0.664613
C	 0.485107	 0.171416	 -0.000134
C	 1.606966	 -0.836201	 0.000174
O	 -0.471109	 -0.172256	 0.844926
C	 2.988788	 -0.202529	 -0.000115
H	 1.465110	 -1.474645	 -0.864821
H	 1.465209	 -1.474077	 0.865596
H	 3.131767	 0.419673	 -0.873407
H	 3.750876	 -0.972315	 0.000098
H	 3.131883	 0.420264	 0.872742
C	 -1.598706	 0.684969	 0.954366
C	 -2.540502	 0.081619	 1.969983
H	 -2.067133	 0.777613	 -0.015345
H	 -1.266687	 1.668373	 1.256033
H	 -2.865361	 -0.902951	 1.657795
H	 -3.414681	 0.712775	 2.078092
H	 -2.060404	 -0.007065	 2.936425

4 2 3 6 F
