%nprocshared=4
%mem=2GB
#HF/cc-pVTZ nosymm scf=tight opt=ModRedundant

Mol

0 1
O	 3.433534	 -1.955001	 0.781672
C	 2.574127	 -2.072921	 -0.023620
C	 2.745576	 -1.941503	 -1.515486
O	 1.317782	 -2.342573	 0.292610
C	 4.177131	 -1.634143	 -1.936713
H	 2.381088	 -2.861792	 -1.955679
H	 2.065238	 -1.163608	 -1.847675
C	 5.207088	 -2.627332	 -1.396709
H	 4.435369	 -0.629285	 -1.621050
H	 4.224388	 -1.627937	 -3.018719
C	 4.836122	 -4.100020	 -1.563982
H	 5.347444	 -2.423868	 -0.339322
H	 6.169586	 -2.442635	 -1.868687
C	 4.365609	 -4.440134	 -2.975621
H	 5.698116	 -4.714947	 -1.315579
H	 4.054890	 -4.371354	 -0.860000
C	 3.021651	 -3.813395	 -3.335828
H	 4.295985	 -5.520206	 -3.080204
H	 5.115638	 -4.113975	 -3.692518
C	 2.557531	 -4.159206	 -4.746780
H	 2.271135	 -4.138543	 -2.620478
H	 3.090357	 -2.733641	 -3.234504
H	 1.601886	 -3.698959	 -4.970159
H	 2.444885	 -5.231242	 -4.869895
H	 3.271086	 -3.816121	 -5.488628
C	 0.824678	 -3.623490	 -0.043565
H	 -0.139967	 -3.792406	 0.411591
H	 1.544729	 -4.329140	 0.337866
H	 0.731980	 -3.727573	 -1.114467

1 2 4 26 F
