%nprocshared=4
%mem=2GB
#HF/cc-pVTZ nosymm scf=tight opt=ModRedundant

Mol

0 1
H	 0.609241	 3.666388	 -2.435272
N	 0.965504	 2.735979	 -2.490351
C	 0.789517	 2.032121	 -1.229766
H	 1.933046	 2.804710	 -2.728018
C	 -0.429275	 1.122929	 -1.281181
H	 0.648742	 2.775359	 -0.452151
H	 1.663775	 1.444508	 -0.946327
C	 -0.678115	 0.376691	 0.025731
H	 -1.296261	 1.722121	 -1.539465
H	 -0.301245	 0.403461	 -2.087691
C	 -1.900706	 -0.535531	 -0.022488
H	 -0.801895	 1.095737	 0.832333
H	 0.198389	 -0.215321	 0.278978
C	 -3.220513	 0.226854	 0.028039
H	 -1.865036	 -1.134397	 -0.928236
H	 -1.857948	 -1.236381	 0.806820
H	 -3.309098	 0.911849	 -0.808725
H	 -4.066838	 -0.449485	 -0.008086
H	 -3.301685	 0.809374	 0.939860

1 2 3 6 F
