%nprocshared=4
%mem=2GB
#HF/cc-pVTZ nosymm scf=tight opt=ModRedundant

Mol

0 1
O	 -0.598040	 -1.422700	 -0.298372
C	 0.504313	 -1.313446	 0.118597
C	 1.167477	 -0.019713	 0.517092
O	 1.317782	 -2.342573	 0.292610
C	 0.272252	 1.200340	 0.340184
H	 1.495392	 -0.137914	 1.542788
H	 2.072488	 0.070812	 -0.075436
C	 -1.076668	 1.085569	 1.051578
H	 0.115358	 1.378964	 -0.717903
H	 0.797313	 2.070476	 0.714594
C	 -1.006523	 0.598235	 2.497950
H	 -1.697800	 0.398496	 0.484752
H	 -1.585213	 2.046634	 1.019724
C	 0.041402	 1.336871	 3.326236
H	 -1.982161	 0.720497	 2.962765
H	 -0.787270	 -0.465143	 2.524253
C	 1.475627	 1.033125	 2.902551
H	 -0.083676	 1.079521	 4.375268
H	 -0.133350	 2.407904	 3.254029
C	 2.516666	 1.773252	 3.735754
H	 1.651806	 -0.036699	 2.974371
H	 1.603087	 1.292403	 1.854990
H	 3.522666	 1.535834	 3.409288
H	 2.438503	 1.508292	 4.784943
H	 2.388713	 2.847825	 3.657476
C	 0.824678	 -3.623490	 -0.043565
H	 -0.139967	 -3.792406	 0.411591
H	 1.544729	 -4.329140	 0.337866
H	 0.731980	 -3.727573	 -1.114467

2 4 26 27 F
