%nprocshared=4
%mem=2GB
#HF/cc-pVTZ nosymm scf=tight opt=ModRedundant

Mol

0 1
H	 -2.644180	 -0.653737	 1.272255
C	 -2.092774	 -0.380414	 0.391915
O	 -0.808934	 -0.154049	 0.752536
F	 -2.163230	 -1.351640	 -0.507133
F	 -2.627232	 0.691260	 -0.169301
C	 0.132375	 0.020077	 -0.238886
C	 -0.403124	 1.081973	 -1.196432
Cl	 0.430414	 -1.493767	 -1.113521
H	 1.078143	 0.361276	 0.144198
F	 0.455220	 1.305780	 -2.158813
F	 -0.573557	 2.203842	 -0.537890
F	 -1.545789	 0.740319	 -1.725431

6 3 2 4 F
