%nprocshared=4
%mem=2GB
#HF/cc-pVTZ nosymm scf=tight opt=ModRedundant

Mol

0 1
H	 2.806707	 1.922176	 -0.235009
C	 2.274777	 1.002099	 -0.017535
C	 0.781608	 1.190491	 -0.248745
H	 2.463308	 0.731269	 1.013983
H	 2.692904	 0.226390	 -0.646962
N	 0.000297	 0.000045	 0.046090
H	 0.441707	 1.990075	 0.394878
H	 0.604322	 1.530747	 -1.272818
C	 -1.359159	 0.315706	 0.454404
C	 0.043405	 -0.973479	 -1.033224
C	 -2.416729	 -0.286720	 -0.460525
H	 -1.478729	 1.390261	 0.442008
H	 -1.539692	 0.003361	 1.486761
C	 -0.147782	 -2.407156	 -0.557350
H	 1.008931	 -0.906765	 -1.515268
H	 -0.695938	 -0.736194	 -1.803276
H	 -2.285276	 0.073129	 -1.473515
H	 -2.371743	 -1.368476	 -0.483209
H	 -3.408658	 -0.007405	 -0.121593
H	 0.623711	 -2.671826	 0.155150
H	 -1.107830	 -2.556178	 -0.078938
H	 -0.090825	 -3.091540	 -1.397104

3 6 9 11 F
