%nprocshared=4
%mem=2GB
#HF/cc-pVTZ nosymm scf=tight opt=ModRedundant

Mol

0 1
H	 -3.258660	 -0.290394	 1.471450
C	 -3.307964	 -0.275695	 0.374072
C	 -2.653809	 0.914422	 -0.273689
O	 -3.855140	 -1.148880	 -0.205112
C	 -3.637405	 2.056455	 -0.545668
H	 -1.830469	 1.236970	 0.350338
H	 -2.241085	 0.565870	 -1.217868
C	 -4.174962	 2.717123	 0.721901
H	 -3.138006	 2.800963	 -1.156118
H	 -4.465939	 1.683259	 -1.142702
C	 -5.145076	 3.860033	 0.434816
H	 -3.339911	 3.090339	 1.308848
H	 -4.669717	 1.974564	 1.342588
C	 -5.671739	 4.526704	 1.704235
H	 -4.648222	 4.593873	 -0.192049
H	 -5.984384	 3.481209	 -0.144281
C	 -6.710455	 5.624787	 1.469324
H	 -4.836603	 4.938988	 2.265798
H	 -6.114755	 3.763917	 2.338427
C	 -6.179457	 6.863154	 0.751290
H	 -7.112151	 5.926847	 2.431504
H	 -7.546115	 5.213774	 0.908926
H	 -5.338036	 7.292313	 1.285921
H	 -5.851281	 6.639089	 -0.256569
H	 -6.947426	 7.624860	 0.680627

6 3 2 4 F
