%nprocshared=4
%mem=2GB
#HF/cc-pVTZ nosymm scf=tight opt=ModRedundant

Mol

0 1
H	 6.786191	 -4.739292	 1.208637
O	 5.916272	 -4.772891	 1.560690
C	 5.487267	 -3.485659	 1.918824
C	 5.166016	 -2.599335	 0.724707
H	 4.595825	 -3.626618	 2.515014
H	 6.226765	 -3.002365	 2.554448
C	 4.293371	 -3.267379	 -0.335508
H	 4.678858	 -1.698075	 1.084661
H	 6.106721	 -2.291492	 0.274479
C	 5.012536	 -4.401811	 -1.064001
H	 3.970750	 -2.522817	 -1.055609
H	 3.392821	 -3.659521	 0.134088
C	 4.160530	 -5.155705	 -2.086734
H	 5.897194	 -4.005472	 -1.556467
H	 5.371556	 -5.113183	 -0.325405
C	 3.009841	 -5.968591	 -1.496077
H	 3.749429	 -4.433364	 -2.786554
H	 4.800558	 -5.811674	 -2.672587
C	 3.483501	 -7.168232	 -0.679428
H	 2.366825	 -6.316257	 -2.301761
H	 2.391980	 -5.337373	 -0.864559
C	 4.787405	 -7.768073	 -1.195101
H	 3.610487	 -6.868801	 0.357294
H	 2.710250	 -7.931867	 -0.682378
H	 5.589371	 -7.037552	 -1.174452
H	 5.096164	 -8.614511	 -0.592342
H	 4.682460	 -8.112344	 -2.218729

20 16 19 22 F
