%nprocshared=1
%mem=2GB
#HF/6-31G* nosymm scf=tight opt=ModRedundant

Mol

0 1
H	 2.591676	 2.013956	 0.335017
O	 3.341076	 1.666752	 -0.126416
C	 3.569581	 0.339145	 0.272707
C	 2.539767	 -0.640285	 -0.279495
H	 4.553106	 0.084646	 -0.100901
H	 3.608576	 0.269204	 1.359154
C	 1.115811	 -0.397273	 0.226630
H	 2.556196	 -0.582511	 -1.364741
H	 2.852081	 -1.648031	 -0.010655
C	 1.011464	 -0.463042	 1.752934
H	 0.449530	 -1.133285	 -0.214643
H	 0.772668	 0.580085	 -0.113024
C	 -0.377181	 -0.142279	 2.317839
H	 1.317683	 -1.451564	 2.090426
H	 1.726664	 0.237301	 2.179208
C	 -1.466752	 -1.158773	 1.965628
H	 -0.299127	 -0.079203	 3.401235
H	 -0.683249	 0.846468	 1.979403
C	 -2.807041	 -0.852884	 2.637560
H	 -1.137513	 -2.154366	 2.259749
H	 -1.613482	 -1.192148	 0.888754
C	 -3.898133	 -1.862417	 2.282559
H	 -2.672169	 -0.832414	 3.716855
H	 -3.132870	 0.145358	 2.352543
H	 -3.616070	 -2.867060	 2.584811
H	 -4.834557	 -1.619718	 2.775351
H	 -4.083059	 -1.880298	 1.212117

10 7 4 8 F
