%nprocshared=1
%mem=2GB
#HF/6-31G* nosymm scf=tight 

Mol

0 1
H	 -2.148721	 -0.186756	 -2.037748
O	 -2.221601	 -0.156094	 -1.094278
C	 -1.129437	 0.542214	 -0.558991
C	 0.135985	 -0.295880	 -0.603416
H	 -0.962854	 1.483389	 -1.075517
H	 -1.375460	 0.770018	 0.468641
O	 1.171513	 0.459272	 -0.058250
H	 0.365340	 -0.573644	 -1.634059
H	 -0.016041	 -1.216954	 -0.043867
C	 2.397842	 -0.198080	 -0.002151
H	 2.508049	 -0.905315	 -0.822092
H	 3.173794	 0.550865	 -0.078850
H	 2.517602	 -0.735921	 0.936026

8 4 3 5 F
1 2 3 5 F
10 7 4 8 F
