%nprocshared=4
%mem=2GB
#HF/cc-pVTZ nosymm scf=tight opt=ModRedundant

Mol

0 1
H	 -3.436473	 1.252944	 -1.023892
O	 -3.458596	 0.315260	 -0.960865
C	 -3.176635	 -0.080824	 0.355601
C	 -1.763371	 0.265266	 0.799691
H	 -3.321825	 -1.153438	 0.379502
H	 -3.895468	 0.357385	 1.043382
C	 -0.673390	 -0.426948	 -0.013392
H	 -1.631049	 1.344913	 0.747560
H	 -1.664587	 -0.001624	 1.849167
C	 -0.829034	 -0.228597	 -1.518850
H	 -0.674869	 -1.486772	 0.216140
H	 0.296333	 -0.048699	 0.301361
C	 0.267836	 -0.919665	 -2.326531
H	 -1.803155	 -0.598612	 -1.823918
H	 -0.822228	 0.835560	 -1.745525
C	 0.201515	 -0.683256	 -3.836353
H	 0.237518	 -1.989007	 -2.130475
H	 1.233128	 -0.574300	 -1.966595
C	 -1.018369	 -1.290934	 -4.524652
H	 1.097371	 -1.098260	 -4.288005
H	 0.231092	 0.385239	 -4.033491
H	 -1.077538	 -2.358858	 -4.339949
H	 -0.966835	 -1.144849	 -5.597613
H	 -1.943285	 -0.844228	 -4.180284

11 7 4 3 F
