%nprocshared=1
%mem=2GB
#HF/6-31G* nosymm scf=tight 

Mol

0 1
H	 -3.420663	 1.227371	 -1.044276
O	 -3.452007	 0.283848	 -0.965577
C	 -3.181085	 -0.079926	 0.364119
C	 -1.765924	 0.277073	 0.805136
H	 -3.327791	 -1.152017	 0.410903
H	 -3.905698	 0.375695	 1.036898
C	 -0.677594	 -0.417312	 -0.014550
H	 -1.637766	 1.358238	 0.744969
H	 -1.659588	 0.017670	 1.857098
C	 0.738335	 -0.034840	 0.421385
H	 -0.814977	 -0.178223	 -1.064632
H	 -0.802730	 -1.495410	 0.071702
C	 1.457944	 -1.166835	 1.159515
H	 1.310617	 0.260021	 -0.454953
H	 0.694280	 0.841865	 1.066407
C	 2.847613	 -0.802374	 1.694438
H	 1.542609	 -2.029281	 0.500187
H	 0.839153	 -1.485241	 1.995895
C	 3.888370	 -0.507980	 0.612512
H	 3.206782	 -1.624941	 2.308173
H	 2.763761	 0.056063	 2.357958
H	 3.984713	 -1.344991	 -0.073978
H	 4.864114	 -0.330420	 1.054365
H	 3.631437	 0.370217	 0.029486

20 16 13 17 F
17 13 10 7 F
11 7 4 3 F
1 2 3 5 F
7 4 3 2 F
