%nprocshared=4
%mem=2GB
#HF/cc-pVTZ nosymm scf=tight opt=ModRedundant

Mol

0 1
O	 0.480956	 1.502648	 -0.263418
C	 0.781622	 1.719742	 -1.387478
C	 1.375056	 0.717729	 -2.344268
O	 0.630629	 2.901797	 -1.962250
C	 0.657315	 -0.624335	 -2.350364
H	 1.367679	 1.171897	 -3.329725
H	 2.421260	 0.602784	 -2.080287
C	 -0.842917	 -0.479266	 -2.587595
H	 0.833928	 -1.128265	 -1.406894
H	 1.091466	 -1.258217	 -3.115215
C	 -1.591446	 0.066688	 -1.375115
H	 -1.013939	 0.176889	 -3.438160
H	 -1.262054	 -1.445089	 -2.860995
C	 -3.090774	 0.212161	 -1.612317
H	 -1.174272	 1.031777	 -1.101751
H	 -1.422668	 -0.588779	 -0.525388
H	 -3.293272	 0.889705	 -2.435215
H	 -3.591090	 0.601696	 -0.733294
H	 -3.543708	 -0.743726	 -1.853906
C	 1.774850	 3.725117	 -2.063383
H	 2.168391	 3.953019	 -1.083894
H	 1.449161	 4.628457	 -2.553025
H	 2.542901	 3.240436	 -2.647673

1 2 4 20 F
