%nprocshared=1
%mem=2GB
#HF/6-31G* nosymm scf=tight 

Mol

0 1
H	 3.276176	 0.174363	 -0.109463
N	 2.434251	 -0.367735	 -0.081097
C	 1.267428	 0.496480	 0.024474
H	 2.501951	 -0.965776	 0.720575
C	 -0.016086	 -0.325158	 -0.029487
H	 1.288818	 1.183521	 -0.816092
H	 1.267576	 1.109062	 0.929528
C	 -1.282277	 0.529072	 0.046735
H	 -0.012495	 -0.908639	 -0.945788
H	 -0.015903	 -1.041248	 0.791956
C	 -1.988392	 0.426005	 1.398208
H	 -1.968968	 0.226614	 -0.741276
H	 -1.031956	 1.569603	 -0.149710
H	 -2.283281	 -0.597981	 1.608477
H	 -2.883267	 1.040107	 1.422700
H	 -1.339535	 0.754390	 2.205283

6 3 5 9 F
1 2 3 6 F
