%nprocshared=1
%mem=2GB
#HF/6-31G* nosymm scf=tight 

Mol

0 1
O	 0.796840	 0.044119	 0.765367
C	 1.705091	 0.115954	 0.001797
C	 1.868688	 1.163278	 -1.072547
O	 2.721346	 -0.737485	 -0.000216
C	 0.726271	 2.173662	 -1.113208
H	 2.823130	 1.654646	 -0.904284
H	 1.967792	 0.642600	 -2.021121
C	 0.918067	 3.222810	 -2.209366
H	 0.645031	 2.660624	 -0.146535
H	 -0.211018	 1.647767	 -1.265631
C	 -0.218549	 4.245061	 -2.263825
H	 1.861305	 3.744198	 -2.052992
H	 1.001229	 2.728107	 -3.175924
C	 -0.026962	 5.292356	 -3.360055
H	 -0.301271	 4.741969	 -1.299781
H	 -1.161353	 3.725834	 -2.420863
H	 0.891686	 5.852802	 -3.211064
H	 -0.848362	 6.001986	 -3.373432
H	 0.025232	 4.828497	 -4.341086
C	 4.024888	 -0.184556	 -0.001949
H	 4.179030	 0.422472	 -0.882452
H	 4.701782	 -1.024608	 -0.003642
H	 4.181981	 0.421185	 0.878906

15 11 8 12 F
9 5 8 12 F
1 2 3 6 F
9 5 3 6 F
