%nprocshared=4
%mem=2GB
#HF/cc-pVTZ nosymm scf=tight opt=ModRedundant

Mol

0 1
H	 -3.436473	 1.252944	 -1.023892
O	 -3.458596	 0.315260	 -0.960865
C	 -3.176635	 -0.080824	 0.355601
C	 -1.763371	 0.265266	 0.799691
H	 -3.321825	 -1.153438	 0.379502
H	 -3.895468	 0.357385	 1.043382
C	 -0.673390	 -0.426948	 -0.013392
H	 -1.631049	 1.344913	 0.747560
H	 -1.664587	 -0.001624	 1.849167
C	 0.737842	 -0.043159	 0.423759
H	 -0.806103	 -0.190518	 -1.063345
H	 -0.797221	 -1.503753	 0.074146
C	 1.568517	 0.558062	 -0.708301
H	 0.672023	 0.659455	 1.248921
H	 1.247429	 -0.922669	 0.811883
C	 3.016901	 0.884877	 -0.340574
H	 1.079937	 1.459193	 -1.071758
H	 1.574380	 -0.138947	 -1.541827
C	 3.177847	 2.000097	 0.689730
H	 3.544439	 1.169901	 -1.245693
H	 3.506060	 -0.014919	 0.023446
H	 2.692928	 2.911720	 0.355253
H	 4.225817	 2.225205	 0.851983
H	 2.751278	 1.731530	 1.648644

13 10 7 11 F
