%nprocshared=1
%mem=2GB
#HF/6-31G* nosymm scf=tight opt=ModRedundant

Mol

0 1
O	 1.837375	 1.284556	 0.174971
C	 1.705091	 0.115954	 0.001797
C	 0.395684	 -0.592691	 -0.245473
O	 2.721346	 -0.737485	 -0.000216
C	 -0.808301	 0.344306	 -0.255494
H	 0.487822	 -1.125515	 -1.187982
H	 0.291978	 -1.358909	 0.517989
C	 -2.120464	 -0.399412	 -0.508819
H	 -0.662815	 1.105323	 -1.015675
H	 -0.859582	 0.870854	 0.692360
C	 -3.338691	 0.525564	 -0.523034
H	 -2.061396	 -0.928264	 -1.458989
H	 -2.259429	 -1.162702	 0.255353
C	 -4.649601	 -0.218270	 -0.774979
H	 -3.202585	 1.287124	 -1.287653
H	 -3.399561	 1.053915	 0.425796
H	 -4.632871	 -0.729195	 -1.733567
H	 -5.494003	 0.463946	 -0.778971
H	 -4.831184	 -0.964631	 -0.006680
C	 4.024888	 -0.184556	 -0.001949
H	 4.179030	 0.422472	 -0.882452
H	 4.701782	 -1.024608	 -0.003642
H	 4.181981	 0.421185	 0.878906

1 2 4 20 F
