%nprocshared=4
%mem=2GB
#HF/cc-pVTZ nosymm scf=tight opt=ModRedundant

Mol

0 1
O	 2.868453	 1.353349	 -0.000734
C	 2.841259	 0.166180	 -0.000295
C	 1.542794	 -0.614730	 -0.000853
C	 4.113372	 -0.651103	 0.000743
C	 0.288398	 0.247429	 0.000314
H	 1.557171	 -1.273139	 -0.866508
H	 1.557484	 -1.274998	 0.863344
C	 -0.993089	 -0.581367	 -0.000217
H	 0.305153	 0.900562	 -0.864701
H	 0.305567	 0.898805	 0.866656
C	 -2.258482	 0.271340	 0.000669
H	 -1.002280	 -1.233920	 -0.870484
H	 -1.002061	 -1.235367	 0.868958
C	 -2.550417	 0.926231	 -1.346412
H	 -2.170520	 1.042310	 0.762233
H	 -3.105873	 -0.345179	 0.290428
C	 -3.816294	 1.776683	 -1.337625
H	 -1.704406	 1.543627	 -1.636288
H	 -2.639770	 0.156251	 -2.108032
H	 -3.744306	 2.577824	 -0.609593
H	 -3.994337	 2.226705	 -2.307575
H	 -4.686599	 1.180163	 -1.085086
H	 4.145311	 -1.294584	 -0.871587
H	 4.970080	 0.004978	 -0.000091
H	 4.145223	 -1.291980	 0.874988

15 11 8 12 F
