%nprocshared=4
%mem=2GB
#HF/cc-pVTZ nosymm scf=tight opt=ModRedundant

Mol

0 1
H	 -3.436473	 1.252944	 -1.023892
O	 -3.458596	 0.315260	 -0.960865
C	 -3.176635	 -0.080824	 0.355601
C	 -1.763371	 0.265266	 0.799691
H	 -3.321825	 -1.153438	 0.379502
H	 -3.895468	 0.357385	 1.043382
C	 -0.673390	 -0.426948	 -0.013392
H	 -1.631049	 1.344913	 0.747560
H	 -1.664587	 -0.001624	 1.849167
C	 0.634187	 0.359331	 -0.057854
H	 -1.032185	 -0.593905	 -1.022998
H	 -0.487637	 -1.411081	 0.410264
C	 1.722437	 -0.341307	 -0.868943
H	 0.439100	 1.343938	 -0.471836
H	 0.993321	 0.520562	 0.956486
C	 3.077392	 0.368543	 -0.876530
H	 1.379915	 -0.468756	 -1.893289
H	 1.861186	 -1.342627	 -0.470539
C	 3.085886	 1.720321	 -1.586297
H	 3.801933	 -0.280869	 -1.358277
H	 3.420444	 0.497060	 0.146807
H	 2.741443	 1.623847	 -2.611055
H	 4.087579	 2.133990	 -1.613326
H	 2.449425	 2.443222	 -1.090377

11 7 4 3 F
