%nprocshared=1
%mem=2GB
#HF/6-31G* nosymm scf=tight opt=ModRedundant

Mol

0 1
O	 -1.276010	 1.052711	 -0.768302
C	 -1.204840	 0.067374	 -0.106123
C	 -2.388195	 -0.672128	 0.458071
O	 -0.067104	 -0.527208	 0.221609
H	 -2.388023	 -1.694060	 0.097175
H	 -3.300579	 -0.174919	 0.164318
H	 -2.315377	 -0.706351	 1.539059
C	 0.976840	 -0.621657	 -0.757772
C	 1.812978	 -1.825450	 -0.361104
C	 1.773344	 0.673496	 -0.786170
H	 0.515064	 -0.787754	 -1.719896
H	 1.205209	 -2.722843	 -0.337651
H	 2.616418	 -1.974094	 -1.075051
H	 2.249313	 -1.682230	 0.621624
H	 2.579431	 0.600024	 -1.509248
H	 1.141910	 1.506463	 -1.068009
H	 2.205943	 0.874010	 0.188848

8 4 2 1 F
