%nprocshared=4
%mem=2GB
#HF/6-31G* nosymm scf=tight opt=ModRedundant

Mol

0 1
H	 0.716789	 2.689732	 4.778233
C	 0.827966	 2.215382	 3.819371
C	 0.224727	 2.769069	 2.700138
C	 1.573789	 1.052637	 3.706658
H	 -0.353419	 3.670860	 2.788936
C	 0.368131	 2.158574	 1.467574
H	 2.040674	 0.624889	 4.575367
C	 1.718702	 0.439788	 2.473860
H	 -0.091549	 2.572862	 0.590800
C	 1.115364	 0.992216	 1.350218
H	 2.294953	 -0.460112	 2.382025
C	 1.239129	 0.373821	 0.000060
O	 1.970282	 -0.730723	 0.000018
O	 0.736665	 0.818381	 -0.984194
C	 3.377318	 -0.566646	 -0.000065
H	 3.695437	 -0.028981	 -0.881264
H	 3.789299	 -1.563704	 0.000236
H	 3.695516	 -0.028316	 0.880770

10 12 13 15 F
