%nprocshared=4
%mem=2GB
#HF/cc-pVTZ nosymm scf=tight opt=ModRedundant

Mol

0 1
H	 3.889604	 0.356866	 -0.089510
N	 3.091268	 -0.241216	 -0.065538
C	 1.860978	 0.530248	 0.016256
H	 3.192566	 -0.835836	 0.730398
C	 0.644130	 -0.381765	 -0.031064
H	 1.835721	 1.204666	 -0.833114
H	 1.808789	 1.151975	 0.911067
C	 -0.678115	 0.376691	 0.025731
H	 0.693998	 -0.977147	 -0.936845
H	 0.693309	 -1.082142	 0.800523
C	 -1.147325	 0.667713	 1.448528
H	 -1.443993	 -0.196737	 -0.491537
H	 -0.582987	 1.314445	 -0.516893
C	 -2.472620	 1.420378	 1.501100
H	 -1.242530	 -0.267871	 1.992504
H	 -0.385405	 1.243925	 1.966436
H	 -3.263828	 0.853728	 1.021375
H	 -2.776452	 1.610476	 2.524112
H	 -2.399971	 2.377258	 0.994703

12 8 5 9 F
