%nprocshared=4
%mem=2GB
#HF/cc-pVTZ nosymm scf=tight opt=ModRedundant

Mol

0 1
H	 3.083659	 -1.378387	 0.000000
O	 2.179005	 -1.633391	 0.000000
C	 1.366950	 -0.558201	 0.000000
C	 0.920623	 0.032752	 1.172283
C	 0.979686	 -0.045450	 -1.221120
H	 1.223283	 -0.367981	 2.122672
C	 0.089368	 1.133364	 1.121050
H	 1.322695	 -0.499606	 -2.128275
C	 0.146412	 1.057835	 -1.263338
H	 -0.249652	 1.582237	 2.034506
C	 -0.302661	 1.652423	 -0.096452
C	 -0.278069	 1.619862	 -2.572276
H	 -0.948981	 2.508174	 -0.139442
O	 0.045303	 1.191707	 -3.626570
H	 -0.936325	 2.491418	 -2.503804

4 3 2 1 F
