%nprocshared=1
%mem=2GB
#HF/6-31G* nosymm scf=tight 

Mol

0 1
O	 2.857690	 -1.973837	 -1.644487
C	 2.504230	 -1.514901	 -0.606458
C	 1.073301	 -1.382678	 -0.144129
O	 3.347903	 -1.046386	 0.304773
C	 0.063856	 -1.920840	 -1.155819
H	 0.999871	 -1.889104	 0.812601
H	 0.896618	 -0.330221	 0.062785
C	 -1.396650	 -1.698962	 -0.748158
H	 0.244704	 -2.979751	 -1.314310
H	 0.242722	 -1.440438	 -2.111666
C	 -1.845497	 -2.475998	 0.492754
H	 -2.027619	 -1.987410	 -1.585654
H	 -1.571725	 -0.635604	 -0.591224
C	 -3.336193	 -2.307336	 0.793383
H	 -1.624461	 -3.532984	 0.352242
H	 -1.273937	 -2.157232	 1.361477
C	 -3.794920	 -3.075224	 2.034370
H	 -3.916232	 -2.636984	 -0.066921
H	 -3.559901	 -1.249625	 0.923389
C	 -5.285518	 -2.904600	 2.325410
H	 -3.571207	 -4.132229	 1.906560
H	 -3.219280	 -2.743994	 2.896174
H	 -5.580087	 -3.460319	 3.210290
H	 -5.890106	 -3.259587	 1.495558
H	 -5.535466	 -1.860573	 2.492169
C	 4.728119	 -1.109107	 -0.004993
H	 4.882018	 -1.033965	 -1.071845
H	 5.068212	 -2.067527	 0.355250
H	 5.265056	 -0.311663	 0.488280

21 17 14 11 F
17 14 11 15 F
15 11 8 5 F
6 3 5 9 F
11 8 5 9 F
1 2 4 26 F
6 3 2 1 F
