%nprocshared=4
%mem=2GB
#HF/6-31G* nosymm scf=tight opt=ModRedundant

Mol

0 1
H	 -3.420663	 1.227371	 -1.044276
O	 -3.452007	 0.283848	 -0.965577
C	 -3.181085	 -0.079926	 0.364119
C	 -1.765924	 0.277073	 0.805136
H	 -3.327791	 -1.152017	 0.410903
H	 -3.905698	 0.375695	 1.036898
C	 -0.677594	 -0.417312	 -0.014550
H	 -1.637766	 1.358238	 0.744969
H	 -1.659588	 0.017670	 1.857098
C	 0.738335	 -0.034840	 0.421385
H	 -0.814977	 -0.178223	 -1.064632
H	 -0.802730	 -1.495410	 0.071702
C	 1.822265	 -0.738362	 -0.399735
H	 0.853533	 1.043532	 0.342250
H	 0.871597	 -0.279636	 1.474438
C	 1.294316	 -1.622943	 -1.535051
H	 2.442814	 -1.338946	 0.263524
H	 2.479179	 0.016143	 -0.827524
C	 0.498914	 -2.844872	 -1.071769
H	 2.139848	 -1.962598	 -2.128347
H	 0.678414	 -1.022743	 -2.201854
H	 1.085924	 -3.457840	 -0.392926
H	 0.218703	 -3.465671	 -1.917303
H	 -0.414711	 -2.564398	 -0.558165

17 13 10 7 F
