%nprocshared=1
%mem=2GB
#HF/6-31G* nosymm scf=tight 

Mol

0 1
H	 -2.798360	 -0.862255	 -0.071053
N	 -1.863561	 -0.715187	 0.256814
C	 -1.344686	 0.554728	 -0.219830
H	 -1.300452	 -1.461917	 -0.101532
C	 -0.758920	 1.340035	 0.934858
H	 -0.579497	 0.454667	 -0.990852
H	 -2.163618	 1.126152	 -0.645984
O	 0.344221	 0.635944	 1.429250
H	 -0.451285	 2.330183	 0.599289
H	 -1.509257	 1.460561	 1.713127
C	 0.931704	 1.205937	 2.555102
H	 1.766045	 0.580432	 2.842009
H	 1.299876	 2.209038	 2.347210
H	 0.230114	 1.260938	 3.384894

8 5 3 6 F
5 8 11 13 F
11 8 5 3 F
