%nprocshared=4
%mem=2GB
#HF/cc-pVTZ nosymm scf=tight opt=ModRedundant

Mol

0 1
H	 -3.436473	 1.252944	 -1.023892
O	 -3.458596	 0.315260	 -0.960865
C	 -3.176635	 -0.080824	 0.355601
C	 -1.763371	 0.265266	 0.799691
H	 -3.321825	 -1.153438	 0.379502
H	 -3.895468	 0.357385	 1.043382
C	 -1.517804	 0.062986	 2.292039
H	 -1.056483	 -0.332817	 0.226567
H	 -1.569928	 1.301390	 0.532455
C	 -0.086355	 0.383152	 2.714433
H	 -1.755227	 -0.961196	 2.557738
H	 -2.207374	 0.690349	 2.851874
C	 0.151412	 0.183494	 4.209977
H	 0.596602	 -0.239064	 2.144075
H	 0.146329	 1.412760	 2.450574
C	 1.549545	 0.568538	 4.696611
H	 -0.043687	 -0.854777	 4.468392
H	 -0.577995	 0.773033	 4.758640
C	 2.677034	 -0.308882	 4.158050
H	 1.560341	 0.520477	 5.781207
H	 1.745915	 1.605908	 4.438306
H	 2.504615	 -1.353670	 4.396304
H	 3.627608	 -0.024262	 4.594676
H	 2.776478	 -0.227250	 3.082386

7 4 3 2 F
