%nprocshared=1
%mem=2GB
#HF/6-31G* nosymm scf=tight 

Mol

0 1
O	 1.205530	 1.294918	 -0.173040
C	 1.122059	 0.121804	 -0.000188
C	 -0.157138	 -0.641014	 0.244062
O	 2.172624	 -0.688929	 0.000216
C	 -1.398915	 0.245116	 0.254321
H	 -0.228092	 -1.409323	 -0.521065
H	 -0.044158	 -1.171415	 1.185691
C	 -2.680066	 -0.552195	 0.503945
H	 -1.471478	 0.771381	 -0.692402
H	 -1.287054	 1.009983	 1.016535
C	 -3.929016	 0.328120	 0.517103
H	 -2.786859	 -1.317641	 -0.262060
H	 -2.600967	 -1.079548	 1.452478
H	 -4.055072	 0.842951	 -0.430902
H	 -4.822859	 -0.261346	 0.695569
H	 -3.868124	 1.082330	 1.296269
C	 3.452279	 -0.082609	 0.000533
H	 3.583069	 0.529321	 -0.880332
H	 4.163299	 -0.894027	 0.001117
H	 3.582335	 0.529955	 0.881077

9 5 8 12 F
1 2 3 6 F
9 5 3 6 F
