%nprocshared=4
%mem=2GB
#HF/cc-pVTZ nosymm scf=tight opt=ModRedundant

Mol

0 1
H	 5.242432	 -0.082955	 1.064467
C	 4.638513	 -0.404995	 0.223968
C	 3.153185	 -0.371538	 0.567485
H	 4.858702	 0.250156	 -0.611801
H	 4.956883	 -1.406296	 -0.047759
C	 2.270674	 -0.829964	 -0.591389
H	 2.875659	 0.635559	 0.856749
H	 2.969959	 -1.007596	 1.430435
C	 0.778655	 -0.812925	 -0.274408
H	 2.454535	 -0.204617	 -1.456239
H	 2.548442	 -1.842732	 -0.868751
C	 0.166485	 0.574257	 -0.177158
H	 0.229671	 -1.331013	 -1.056691
H	 0.569455	 -1.357723	 0.641533
C	 -1.180025	 0.697761	 0.509157
O	 0.706186	 1.528292	 -0.637393
C	 -2.285431	 -0.137488	 -0.145671
H	 -1.447360	 1.745713	 0.496200
H	 -1.065514	 0.394096	 1.546399
C	 -3.646545	 0.082747	 0.508954
H	 -2.348635	 0.118247	 -1.199806
H	 -2.034895	 -1.192387	 -0.096473
C	 -4.757412	 -0.737227	 -0.138149
H	 -3.900211	 1.137405	 0.459735
H	 -3.580878	 -0.166775	 1.564416
H	 -4.867876	 -0.486707	 -1.187777
H	 -4.549650	 -1.800049	 -0.072540
H	 -5.709585	 -0.556397	 0.346597

16 12 15 17 F
