%nprocshared=1
%mem=2GB
#HF/6-31G* nosymm scf=tight 

Mol

0 1
O	 3.225979	 0.970355	 -0.599647
C	 2.701189	 0.057885	 -0.047330
C	 1.245376	 -0.013843	 0.345420
O	 3.347903	 -1.046386	 0.304773
C	 0.455112	 1.231400	 -0.050772
H	 0.838542	 -0.913825	 -0.103701
H	 1.208210	 -0.175333	 1.419774
C	 -0.998893	 1.219485	 0.433193
H	 0.482531	 1.345121	 -1.130325
H	 0.957290	 2.103070	 0.354729
C	 -1.725559	 2.563255	 0.326666
H	 -1.004967	 0.902838	 1.473587
H	 -1.557422	 0.462473	 -0.115432
C	 -3.134281	 2.526722	 0.922625
H	 -1.139949	 3.327838	 0.834891
H	 -1.792643	 2.871448	 -0.714242
C	 -3.871902	 3.862725	 0.817065
H	 -3.074735	 2.231777	 1.968902
H	 -3.717110	 1.755027	 0.422127
C	 -5.276447	 3.818816	 1.417919
H	 -3.290377	 4.635194	 1.315824
H	 -3.936254	 4.157075	 -0.228400
H	 -5.773463	 4.779794	 1.327903
H	 -5.243688	 3.561038	 2.472753
H	 -5.894257	 3.078788	 0.916977
C	 4.728119	 -1.109107	 -0.004993
H	 4.882018	 -1.033965	 -1.071845
H	 5.068212	 -2.067527	 0.355250
H	 5.265056	 -0.311663	 0.488280

21 17 14 11 F
17 14 11 15 F
15 11 8 5 F
6 3 5 9 F
2 4 26 27 F
1 2 4 26 F
6 3 2 1 F
