%nprocshared=4
%mem=2GB
#HF/6-31G* nosymm scf=tight opt=ModRedundant

Mol

0 1
O	 -2.042549	 -1.228399	 -0.269030
C	 -1.653912	 -0.146171	 0.050137
C	 -0.332303	 0.024011	 0.778412
C	 -2.438579	 1.106236	 -0.272369
C	 -0.359496	 1.266486	 1.682509
H	 -0.106693	 -0.858907	 1.369968
H	 0.443764	 0.137286	 0.029539
C	 0.965232	 1.492622	 2.412570
H	 -1.160208	 1.171897	 2.413943
H	 -0.596000	 2.133237	 1.072632
C	 0.943972	 2.732586	 3.305455
H	 1.200632	 0.617314	 3.014108
H	 1.764947	 1.586554	 1.681680
H	 0.175607	 2.653474	 4.069268
H	 0.742963	 3.628888	 2.726076
H	 1.896373	 2.869543	 3.807653
H	 -3.277823	 0.863061	 -0.908988
H	 -1.806773	 1.843019	 -0.759671
H	 -2.802853	 1.554979	 0.648059

5 3 2 4 F
