%nprocshared=1
%mem=2GB
#HF/6-31G* nosymm scf=tight 
prop=(read,field)

Mol

0 1
H	 -2.647449	 -0.647917	 1.268826
C	 -2.084600	 -0.389697	 0.393260
O	 -0.808680	 -0.132325	 0.768496
F	 -2.120020	 -1.388262	 -0.486582
F	 -2.622952	 0.665431	 -0.209316
C	 0.082978	 0.268418	 -0.209788
C	 1.351958	 -0.551963	 -0.017902
Cl	 0.432769	 1.999458	 -0.074288
H	 -0.289911	 0.087497	 -1.202760
F	 2.247726	 -0.232390	 -0.927634
F	 1.058023	 -1.828587	 -0.163758
F	 1.877251	 -0.380038	 1.170577

@grid.dat /N
