%nprocshared=4
%mem=2GB
#HF/cc-pVTZ nosymm scf=tight opt=ModRedundant

Mol

0 1
H	 2.614283	 2.028610	 0.296620
O	 3.358864	 1.662087	 -0.142800
C	 3.565468	 0.338079	 0.273842
C	 4.975150	 -0.168509	 0.007664
H	 3.373011	 0.329919	 1.338208
H	 2.836868	 -0.323861	 -0.190299
C	 5.331115	 -0.283752	 -1.472828
H	 5.679293	 0.493488	 0.502739
H	 5.074121	 -1.143735	 0.478341
C	 6.741175	 -0.826331	 -1.701248
H	 5.238732	 0.690673	 -1.940764
H	 4.613380	 -0.937141	 -1.966007
C	 7.124687	 -1.032389	 -3.167779
H	 7.460562	 -0.159194	 -1.232594
H	 6.832186	 -1.778384	 -1.185707
C	 7.252165	 0.249427	 -3.989021
H	 8.074157	 -1.559584	 -3.200956
H	 6.398335	 -1.690687	 -3.639172
C	 7.732424	 -0.000891	 -5.416292
H	 7.944959	 0.925252	 -3.492265
H	 6.297674	 0.765708	 -4.026488
C	 7.857209	 1.276434	 -6.240162
H	 8.694012	 -0.505978	 -5.387800
H	 7.045916	 -0.682626	 -5.911273
H	 8.561919	 1.966489	 -5.788005
H	 8.202265	 1.063607	 -7.245522
H	 6.902674	 1.786241	 -6.319604

4 3 2 1 F
