%nprocshared=4
%mem=2GB
#HF/cc-pVTZ nosymm scf=tight opt=ModRedundant

Mol

0 1
H	 1.651322	 -0.822465	 0.000000
O	 0.729993	 -1.034364	 0.000000
C	 0.037305	 0.100061	 0.000000
C	 -0.255637	 0.579817	 1.389998
O	 -0.292527	 0.640232	 -0.998109
H	 -0.817843	 -0.176544	 1.922268
H	 -0.816586	 1.498491	 1.344178
H	 0.674020	 0.734398	 1.922268

4 3 2 1 F
