%nprocshared=1
%mem=2GB
#HF/6-31G* nosymm scf=tight 

Mol

0 1
H	 -4.031818	 -0.453427	 0.000382
C	 -2.967712	 -0.297022	 0.000317
C	 -2.458620	 0.992929	 0.000301
C	 -2.109895	 -1.385637	 0.000247
H	 -3.124998	 1.836319	 0.000355
C	 -1.090278	 1.193236	 0.000216
H	 -2.506361	 -2.384847	 0.000258
C	 -0.739812	 -1.187531	 0.000161
H	 -0.678594	 2.184290	 0.000205
C	 -0.226438	 0.104061	 0.000146
H	 -0.072310	 -2.027032	 0.000106
C	 1.239129	 0.373821	 0.000060
O	 1.970282	 -0.730723	 0.000018
O	 1.714856	 1.465857	 0.000035
C	 3.377318	 -0.566646	 -0.000065
H	 3.695437	 -0.028981	 -0.881264
H	 3.789299	 -1.563704	 0.000236
H	 3.695516	 -0.028316	 0.880770

12 13 15 16 F
13 12 10 6 F
