%nprocshared=1
%mem=2GB
#HF/6-31G* nosymm scf=tight opt=ModRedundant

Mol

0 1
O	 0.625848	 1.349995	 -0.000749
C	 0.486307	 0.169203	 0.000779
C	 1.608116	 -0.841643	 0.000302
O	 -0.698257	 -0.426125	 0.001050
C	 2.990107	 -0.200498	 -0.000684
H	 1.468623	 -1.481519	 -0.865924
H	 1.469683	 -1.481289	 0.866878
H	 3.129736	 0.423364	 -0.875135
H	 3.757882	 -0.966877	 -0.001197
H	 3.130964	 0.423383	 0.873533
C	 -1.818777	 0.338674	 0.433392
C	 -3.039273	 -0.552510	 0.341241
H	 -1.913409	 1.212512	 -0.196716
H	 -1.645701	 0.676217	 1.446161
H	 -3.195718	 -0.886485	 -0.678143
H	 -3.920350	 -0.006731	 0.662918
H	 -2.926673	 -1.425731	 0.973746

11 4 2 3 F
