%nprocshared=1
%mem=2GB
#HF/6-31G* nosymm scf=tight opt=ModRedundant

Mol

0 1
H	 2.591676	 2.013956	 0.335017
O	 3.341076	 1.666752	 -0.126416
C	 3.569581	 0.339145	 0.272707
C	 4.508397	 0.224081	 1.468581
H	 2.597914	 -0.061931	 0.530921
H	 3.950795	 -0.249200	 -0.561143
C	 5.929511	 0.722182	 1.194357
H	 4.080177	 0.780931	 2.297985
H	 4.543756	 -0.820771	 1.772557
C	 6.861072	 0.543283	 2.396441
H	 5.892631	 1.771977	 0.916986
H	 6.342438	 0.186190	 0.339638
C	 8.318720	 0.947656	 2.147271
H	 6.469792	 1.109234	 3.239914
H	 6.840501	 -0.501963	 2.697669
C	 8.539759	 2.442714	 1.901464
H	 8.908989	 0.647316	 3.010517
H	 8.709426	 0.381618	 1.303004
C	 10.018291	 2.811923	 1.763386
H	 8.104081	 3.009845	 2.722839
H	 8.014307	 2.755922	 1.002518
C	 10.241384	 4.302721	 1.511563
H	 10.549077	 2.515289	 2.665473
H	 10.457692	 2.239023	 0.949386
H	 9.841548	 4.901840	 2.324836
H	 11.298448	 4.532782	 1.420338
H	 9.753221	 4.623382	 0.595464

4 3 2 1 F
