%nprocshared=1
%mem=2GB
#HF/6-31G* nosymm scf=tight 
prop=(read,field)

Mol

0 1
H	 2.568956	 0.643711	 0.217744
O	 2.064625	 -0.086915	 -0.111834
C	 0.745796	 0.005116	 0.354744
H	 0.739171	 0.037653	 1.444969
C	 -0.063993	 -1.194878	 -0.122761
C	 -0.046136	 1.193541	 -0.190438
H	 0.197550	 -1.376067	 -1.160697
H	 0.163021	 -2.097981	 0.431850
C	 -1.535616	 -0.752179	 0.006635
H	 0.154678	 1.271312	 -1.255568
H	 0.226375	 2.140459	 0.267294
C	 -1.509027	 0.801502	 0.065610
H	 -2.127631	 -1.112196	 -0.826854
H	 -1.986683	 -1.158410	 0.905553
H	 -2.183504	 1.254105	 -0.651992
H	 -1.821561	 1.144317	 1.047082

@grid.dat /N
