%nprocshared=1
%mem=2GB
#HF/6-31G* nosymm scf=tight 

Mol

0 1
O	 1.123784	 -2.011821	 -4.812821
C	 0.737682	 -1.012592	 -4.286607
C	 0.502283	 -0.963412	 -2.787116
C	 0.495513	 0.256299	 -5.073147
C	 1.829372	 -0.797765	 -2.029133
H	 0.034015	 -1.897660	 -2.496924
H	 -0.174327	 -0.152521	 -2.532791
C	 1.631333	 -0.777471	 -0.511575
H	 2.487117	 -1.609917	 -2.317513
H	 2.315646	 0.125867	 -2.339276
C	 2.915987	 -0.544314	 0.291766
H	 1.176484	 -1.715090	 -0.197392
H	 0.919029	 0.005998	 -0.261280
C	 3.373361	 0.914346	 0.347591
H	 3.708709	 -1.142521	 -0.150311
H	 2.780642	 -0.921148	 1.303579
H	 3.506512	 1.320010	 -0.651625
H	 4.322697	 0.999599	 0.867103
H	 2.660624	 1.545032	 0.868198
H	 -0.564556	 0.495896	 -5.062596
H	 0.824114	 0.126952	 -6.094947
H	 1.017590	 1.094538	 -4.620824

6 3 2 1 F
6 3 5 8 F
3 5 8 12 F
