%nprocshared=4
%mem=2GB
#HF/cc-pVTZ nosymm scf=tight opt=ModRedundant

Mol

0 1
H	 -0.925005	 2.312679	 -0.770839
C	 -0.794872	 1.302662	 -0.443933
C	 -1.902524	 0.495168	 -0.031364
C	 0.420242	 0.750191	 -0.407808
H	 -2.892907	 0.909896	 -0.048671
C	 -1.712029	 -0.764553	 0.372853
H	 1.298043	 1.291116	 -0.701079
N	 0.640204	 -0.530428	 -0.000115
H	 -2.516146	 -1.397007	 0.688066
C	 -0.385808	 -1.363658	 0.410807
C	 2.006991	 -1.033007	 -0.000020
O	 -0.174439	 -2.490814	 0.767298
H	 2.182444	 -1.636914	 -0.880881
H	 2.678769	 -0.195442	 -0.002236
H	 2.183828	 -1.633244	 0.883082

10 8 11 13 F
