%nprocshared=4
%mem=2GB
#HF/cc-pVTZ nosymm scf=tight opt=ModRedundant

Mol

0 1
O	 -2.081319	 -0.951530	 -0.502732
N	 -1.613558	 0.006676	 0.014756
C	 -0.329345	 -0.171618	 0.743966
O	 -2.068523	 1.100482	 -0.024385
C	 -0.353222	 -1.491003	 1.505374
H	 -0.243258	 0.672448	 1.407713
H	 0.444369	 -0.154992	 -0.005248
C	 0.949304	 -1.716208	 2.268836
H	 -1.190171	 -1.484885	 2.193877
H	 -0.515383	 -2.299941	 0.802480
C	 0.954460	 -3.034588	 3.034557
H	 1.108224	 -0.895121	 2.961655
H	 1.783050	 -1.699038	 1.573149
H	 0.151056	 -3.067097	 3.762006
H	 0.828610	 -3.876829	 2.363358
H	 1.888683	 -3.170154	 3.565604

5 3 2 1 F
