%nprocshared=4
%mem=2GB
#HF/cc-pVTZ nosymm scf=tight opt=ModRedundant

Mol

0 1
H	 3.083659	 -1.378387	 0.000000
O	 2.179005	 -1.633391	 0.000000
C	 1.366950	 -0.558201	 0.000000
C	 1.799664	 0.696663	 -0.400944
C	 0.064024	 -0.737019	 0.417648
H	 2.814977	 0.834173	 -0.725997
C	 0.929992	 1.768259	 -0.383422
H	 -0.273201	 -1.704933	 0.727913
C	 -0.800907	 0.342357	 0.432087
H	 1.275931	 2.734459	 -0.695842
C	 -0.374985	 1.597798	 0.032989
C	 -2.206901	 0.163080	 0.879770
H	 -1.053542	 2.429203	 0.047692
O	 -2.674096	 -0.862163	 1.240360
H	 -2.813813	 1.073414	 0.856351

4 3 2 1 F
