%nprocshared=4
%mem=2GB
#HF/cc-pVTZ nosymm scf=tight 
prop=(read,field)

Mol

0 1
H	 1.709756	 -2.949420	 -0.121088
C	 1.456162	 -1.950713	 -0.460292
C	 0.406568	 -1.334978	 0.454982
H	 1.078198	 -2.016952	 -1.473049
H	 2.370895	 -1.371535	 -0.483743
N	 0.000297	 0.000045	 0.046089
H	 -0.464479	 -1.975495	 0.443505
H	 0.767932	 -1.334693	 1.487138
C	 -1.359159	 0.315706	 0.454403
C	 0.953122	 1.019676	 0.454747
C	 -2.416729	 -0.286720	 -0.460526
H	 -1.478729	 1.390261	 0.442007
H	 -1.539692	 0.003361	 1.486760
C	 0.959851	 2.236994	 -0.459873
H	 1.943644	 0.586345	 0.442499
H	 0.772554	 1.331964	 1.487115
H	 -2.285276	 0.073129	 -1.473516
H	 -2.371743	 -1.368476	 -0.483210
H	 -3.408658	 -0.007405	 -0.121594
H	 1.206448	 1.943644	 -1.472811
H	 0.000192	 2.738293	 -0.482919
H	 1.697041	 2.956792	 -0.120383

@grid.dat /N
