%nprocshared=4
%mem=2GB
#HF/cc-pVTZ nosymm scf=tight opt=ModRedundant

Mol

0 1
O	 -2.071633	 -1.227563	 -0.223463
C	 -1.652164	 -0.152425	 0.058082
C	 -0.327811	 0.006324	 0.778296
C	 -2.402515	 1.108629	 -0.298924
C	 -0.400158	 1.122873	 1.826870
H	 -0.044607	 -0.926859	 1.253787
H	 0.421182	 0.252024	 0.036353
C	 -0.546219	 2.507893	 1.203480
H	 0.491922	 1.102834	 2.447744
H	 -1.240204	 0.927545	 2.484544
C	 -0.631231	 3.620359	 2.242882
H	 0.294474	 2.695582	 0.541263
H	 -1.435953	 2.526339	 0.580926
H	 0.261048	 3.649944	 2.859321
H	 -1.481797	 3.476706	 2.900354
H	 -0.738349	 4.589565	 1.770052
H	 -3.240910	 0.874416	 -0.936711
H	 -1.747554	 1.818823	 -0.790984
H	 -2.760419	 1.579708	 0.610998

5 3 2 4 F
