%nprocshared=4
%mem=2GB
#HF/6-31G* nosymm scf=tight opt=ModRedundant

Mol

0 1
O	 -2.042549	 -1.228399	 -0.269030
C	 -1.653912	 -0.146171	 0.050137
C	 -0.332303	 0.024011	 0.778412
C	 -2.438579	 1.106236	 -0.272369
C	 0.437602	 1.241104	 0.241938
H	 -0.497097	 0.132251	 1.846827
H	 0.251420	 -0.875180	 0.615179
C	 1.790942	 1.431204	 0.928496
H	 -0.160166	 2.141486	 0.372583
H	 0.581815	 1.115779	 -0.827005
C	 2.562643	 2.635559	 0.390709
H	 1.639984	 1.546843	 1.999601
H	 2.387626	 0.531441	 0.798255
H	 2.005510	 3.556485	 0.537508
H	 2.757064	 2.532887	 -0.672823
H	 3.518583	 2.743910	 0.893167
H	 -3.277823	 0.863061	 -0.908988
H	 -1.806773	 1.843019	 -0.759671
H	 -2.802853	 1.554979	 0.648059

5 3 2 4 F
