%nprocshared=4
%mem=2GB
#HF/cc-pVTZ nosymm scf=tight opt=ModRedundant

Mol

0 1
H	 -0.000342	 -0.223902	 -3.352295
C	 -0.027146	 0.371068	 -2.446756
C	 0.024493	 -0.518541	 -1.216015
H	 -0.932586	 0.964979	 -2.449855
H	 0.819708	 1.049865	 -2.473332
N	 -0.042516	 0.263377	 0.000000
H	 -0.822211	 -1.197105	 -1.225584
H	 0.921114	 -1.142847	 -1.255206
C	 0.024493	 -0.518541	 1.216015
H	 0.682568	 0.950412	 0.000000
C	 -1.309775	 -0.522275	 1.943001
H	 0.291476	 -1.535243	 0.946785
H	 0.806559	 -0.162492	 1.891903
H	 -2.090583	 -0.915857	 1.304258
H	 -1.257182	 -1.129147	 2.839466
H	 -1.594404	 0.482050	 2.241248

12 9 6 3 F
