%nprocshared=4
%mem=2GB
#HF/cc-pVTZ nosymm scf=tight opt=ModRedundant

Mol

0 1
H	 1.316084	 -1.399760	 0.315416
C	 0.736191	 -0.478154	 0.391684
N	 -0.537714	 -0.645117	 0.000000
O	 1.220104	 0.536381	 0.783173
C	 -1.522613	 0.412524	 0.000000
H	 -0.805621	 -1.548363	 -0.303900
H	 -2.150256	 0.356137	 -0.880771
H	 -1.005621	 1.357208	 0.000000
H	 -2.150256	 0.356137	 0.880771

6 3 5 7 F
