%nprocshared=4
%mem=2GB
#HF/cc-pVTZ nosymm scf=tight opt=ModRedundant

Mol

0 1
H	 2.342730	 0.877684	 -1.045694
C	 2.360424	 0.000000	 -0.411793
C	 1.173749	 0.000000	 0.526870
H	 3.286567	 0.000000	 0.151574
H	 2.342730	 -0.877684	 -1.045694
O	 -0.000000	 0.000000	 -0.223739
H	 1.203779	 0.876757	 1.172538
H	 1.203779	 -0.876757	 1.172538
C	 -1.173749	 0.000000	 0.526870
C	 -0.861241	 -0.464507	 1.932522
H	 -1.910464	 -0.657797	 0.067473
H	 -1.603618	 1.000643	 0.547298
H	 -0.447296	 -1.464966	 1.918251
H	 -1.761863	 -0.472415	 2.535798
H	 -0.140125	 0.195228	 2.398583

11 9 6 3 F
