%nprocshared=4
%mem=2GB
#HF/cc-pVTZ nosymm scf=tight opt=ModRedundant

Mol

0 1
H	 0.559871	 -3.346639	 -0.734483
O	 0.921754	 -2.606501	 -0.270875
C	 0.116995	 -1.562917	 -0.451782
C	 0.626018	 -0.337582	 0.258241
O	 -0.869001	 -1.635093	 -1.100198
C	 -0.267326	 0.883135	 0.076490
H	 0.741926	 -0.606795	 1.301289
H	 1.628560	 -0.149021	 -0.112955
C	 -1.726822	 0.642622	 0.463839
H	 -0.210803	 1.217591	 -0.953497
H	 0.129920	 1.693110	 0.675679
C	 -1.934576	 -0.261181	 1.677931
H	 -2.231784	 0.197366	 -0.388225
H	 -2.217578	 1.597619	 0.638727
C	 -3.406997	 -0.549516	 1.952367
H	 -1.407823	 -1.198332	 1.518828
H	 -1.494690	 0.190719	 2.561245
H	 -3.526584	 -1.193439	 2.815932
H	 -3.873663	 -1.041108	 1.105457
H	 -3.955573	 0.366593	 2.144628

12 9 6 10 F
