%nprocshared=1
%mem=2GB
#HF/6-31G* nosymm scf=tight 

Mol

0 1
O	 0.712767	 0.655984	 -0.980073
C	 1.122059	 0.121804	 -0.000188
C	 0.539830	 0.262701	 1.385110
O	 2.172624	 -0.688929	 0.000216
C	 -0.672836	 1.186576	 1.441998
H	 0.291211	 -0.735274	 1.735807
H	 1.334446	 0.615434	 2.036969
C	 -1.242486	 1.311823	 2.855921
H	 -1.438572	 0.814749	 0.768279
H	 -0.393936	 2.167331	 1.069388
C	 -2.457051	 2.236722	 2.922244
H	 -1.519557	 0.326294	 3.224757
H	 -0.470435	 1.682274	 3.527318
H	 -3.260242	 1.874263	 2.287294
H	 -2.841462	 2.307805	 3.934890
H	 -2.203478	 3.240059	 2.592614
C	 3.452279	 -0.082609	 0.000533
H	 3.583069	 0.529321	 -0.880332
H	 4.163299	 -0.894027	 0.001117
H	 3.582335	 0.529955	 0.881077

9 5 8 12 F
1 2 3 6 F
9 5 3 6 F
