%nprocshared=4
%mem=2GB
#HF/cc-pVTZ nosymm scf=tight opt=ModRedundant

Mol

0 1
H	 2.614283	 2.028610	 0.296620
O	 3.358864	 1.662087	 -0.142800
C	 3.565468	 0.338079	 0.273842
C	 2.533667	 -0.637565	 -0.272227
H	 4.548038	 0.064914	 -0.086598
H	 3.593945	 0.282242	 1.360360
C	 1.114816	 -0.402372	 0.240993
H	 2.544552	 -0.580764	 -1.356576
H	 2.850574	 -1.642962	 -0.005497
C	 0.113298	 -1.420414	 -0.302504
H	 0.796373	 0.598427	 -0.031033
H	 1.113377	 -0.446476	 1.328807
C	 0.735675	 -2.683193	 -0.901077
H	 -0.575962	 -1.701202	 0.490154
H	 -0.487862	 -0.938004	 -1.068242
C	 1.443794	 -3.592709	 0.101465
H	 -0.050857	 -3.252765	 -1.388399
H	 1.433683	 -2.401275	 -1.686228
C	 1.960486	 -4.885029	 -0.525709
H	 0.757726	 -3.837118	 0.909576
H	 2.277333	 -3.067826	 0.558318
C	 2.671327	 -5.793741	 0.471708
H	 1.129906	 -5.423198	 -0.974140
H	 2.639546	 -4.642521	 -1.338808
H	 2.008336	 -6.080562	 1.281285
H	 3.022597	 -6.701800	 -0.004889
H	 3.530641	 -5.297409	 0.910555

14 10 7 4 F
