%nprocshared=1
%mem=2GB
#HF/6-31G* nosymm scf=tight 

Mol

0 1
H	 2.591676	 2.013956	 0.335017
O	 3.341076	 1.666752	 -0.126416
C	 3.569581	 0.339145	 0.272707
C	 2.539767	 -0.640285	 -0.279495
H	 4.553106	 0.084646	 -0.100901
H	 3.608576	 0.269204	 1.359154
C	 1.310054	 0.031258	 -0.895694
H	 3.024411	 -1.267262	 -1.023395
H	 2.225819	 -1.295256	 0.531565
C	 0.271133	 -0.978452	 -1.391626
H	 1.624580	 0.663432	 -1.721403
H	 0.847293	 0.686482	 -0.157538
C	 -1.018808	 -0.358045	 -1.940706
H	 0.721197	 -1.608782	 -2.156461
H	 0.011353	 -1.640423	 -0.568212
C	 -0.847015	 0.451527	 -3.228945
H	 -1.730896	 -1.159275	 -2.127193
H	 -1.468277	 0.272885	 -1.175367
C	 -2.174516	 0.960870	 -3.794406
H	 -0.352013	 -0.165585	 -3.977448
H	 -0.191594	 1.301006	 -3.052561
C	 -2.005275	 1.774732	 -5.076846
H	 -2.831282	 0.115479	 -3.987951
H	 -2.675111	 1.569743	 -3.044363
H	 -1.536440	 1.182757	 -5.857860
H	 -2.963252	 2.119609	 -5.453641
H	 -1.382710	 2.648889	 -4.907655

14 10 7 4 F
14 10 13 16 F
10 7 4 8 F
10 13 16 20 F
20 16 19 22 F
4 3 2 1 F
