%nprocshared=1
%mem=2GB
#HF/6-31G* nosymm scf=tight opt=ModRedundant

Mol

0 1
O	 0.652047	 -0.125326	 -0.494188
C	 1.705091	 0.115954	 0.001797
C	 2.069569	 1.398280	 0.709374
O	 2.721346	 -0.737485	 -0.000216
C	 0.933701	 2.416287	 0.742682
H	 2.391864	 1.134931	 1.713110
H	 2.947585	 1.804042	 0.214234
C	 1.329837	 3.704468	 1.465681
H	 0.069634	 1.972216	 1.226807
H	 0.626649	 2.642901	 -0.273523
C	 0.201729	 4.736618	 1.509221
H	 1.640127	 3.470125	 2.482932
H	 2.198236	 4.143678	 0.976947
C	 0.598524	 6.023983	 2.230674
H	 -0.665679	 4.300258	 1.999459
H	 -0.108731	 4.972397	 0.493760
H	 0.881474	 5.825377	 3.260582
H	 -0.221399	 6.735307	 2.244665
H	 1.443212	 6.502643	 1.743131
C	 4.024888	 -0.184556	 -0.001949
H	 4.179030	 0.422472	 -0.882452
H	 4.701782	 -1.024608	 -0.003642
H	 4.181981	 0.421185	 0.878906

1 2 4 20 F
