%nprocshared=1
%mem=2GB
#HF/6-31G* nosymm scf=tight opt=ModRedundant

Mol

0 1
H	 -2.798360	 -0.862255	 -0.071053
N	 -1.863561	 -0.715187	 0.256814
C	 -1.344686	 0.554728	 -0.219830
H	 -1.300452	 -1.461917	 -0.101532
C	 -1.873092	 1.684311	 0.639219
H	 -0.255182	 0.608877	 -0.226944
H	 -1.685013	 0.707872	 -1.239392
O	 -1.367139	 1.524509	 1.933654
H	 -1.560923	 2.645445	 0.231284
H	 -2.960391	 1.655538	 0.652898
C	 -1.843733	 2.452568	 2.855138
H	 -1.386131	 2.231648	 3.809859
H	 -1.582576	 3.469399	 2.567328
H	 -2.924986	 2.390296	 2.959181

6 3 2 4 F
