%nprocshared=1
%mem=2GB
#HF/6-31G* nosymm scf=tight opt=ModRedundant

Mol

0 1
H	 -2.820809	 0.170741	 -0.002400
N	 -1.855091	 0.304026	 0.226942
C	 -1.132117	 0.869853	 -0.898337
H	 -1.474462	 -0.594947	 0.450726
C	 0.331961	 1.028067	 -0.545380
H	 -1.203680	 0.274984	 -1.809935
H	 -1.542759	 1.850929	 -1.116615
O	 0.874168	 -0.245412	 -0.342030
H	 0.860979	 1.535799	 -1.351598
H	 0.427830	 1.627487	 0.357249
C	 2.202317	 -0.244239	 0.074611
H	 2.711377	 -1.041390	 -0.449894
H	 2.692099	 0.699270	 -0.159667
H	 2.283185	 -0.418429	 1.145558

5 8 11 13 F
