%nprocshared=1
%mem=2GB
#HF/6-31G* nosymm scf=tight 

Mol

0 1
O	 -0.988096	 -1.408613	 0.050699
C	 -0.676749	 -0.249230	 -0.009274
C	 -1.746085	 0.827156	 -0.009539
N	 0.623947	 0.147590	 -0.102813
H	 -1.701500	 1.431508	 -0.908902
H	 -2.703425	 0.330732	 0.036390
H	 -1.647323	 1.487769	 0.845106
C	 1.473641	 -0.484952	 -1.092655
C	 1.318268	 0.895739	 0.922095
H	 2.138967	 0.255155	 -1.523470
H	 0.863036	 -0.911525	 -1.869274
H	 2.078762	 -1.272422	 -0.648650
H	 2.060664	 1.531817	 0.454877
H	 0.644916	 1.531835	 1.474284
H	 1.831357	 0.242032	 1.625103

2 4 8 10 F
