%nprocshared=1
%mem=2GB
#HF/6-31G* nosymm scf=tight opt=ModRedundant

Mol

0 1
H	 2.278265	 -2.684377	 -0.116690
O	 3.035921	 -2.419834	 -0.617735
C	 2.725222	 -2.431525	 -1.987911
C	 1.813570	 -1.283631	 -2.407385
H	 3.672825	 -2.353468	 -2.505240
H	 2.280837	 -3.385395	 -2.269750
C	 0.424223	 -1.326179	 -1.766470
H	 2.302481	 -0.345770	 -2.156888
H	 1.712831	 -1.309344	 -3.491155
C	 -0.484533	 -0.192067	 -2.248936
H	 0.527551	 -1.273718	 -0.686222
H	 -0.048657	 -2.282537	 -1.990311
C	 -1.916244	 -0.237445	 -1.702597
H	 -0.031430	 0.763695	 -1.991911
H	 -0.529605	 -0.223170	 -3.335536
C	 -2.037799	 -0.007733	 -0.193645
H	 -2.502495	 0.521156	 -2.217038
H	 -2.368803	 -1.194017	 -1.959494
C	 -3.489788	 0.042957	 0.286558
H	 -1.540943	 0.925248	 0.068637
H	 -1.516243	 -0.793334	 0.347755
C	 -4.216917	 1.317354	 -0.141063
H	 -4.025645	 -0.823308	 -0.095450
H	 -3.513059	 -0.038752	 1.371301
H	 -4.239342	 1.411634	 -1.223113
H	 -5.243387	 1.322503	 0.212445
H	 -3.726170	 2.201406	 0.256408

20 16 19 22 F
