%nprocshared=4
%mem=2GB
#HF/cc-pVTZ nosymm scf=tight opt=ModRedundant

Mol

0 1
H	 -2.644180	 -0.653737	 1.272255
C	 -2.092774	 -0.380414	 0.391915
O	 -0.808934	 -0.154049	 0.752536
F	 -2.163230	 -1.351640	 -0.507133
F	 -2.627232	 0.691260	 -0.169301
C	 0.085006	 0.250800	 -0.215074
C	 0.686500	 -1.007248	 -0.837004
Cl	 1.367791	 1.260115	 0.478671
H	 -0.383475	 0.820290	 -0.998561
F	 1.538145	 -0.690431	 -1.778997
F	 -0.274133	 -1.715326	 -1.382096
F	 1.294837	 -1.752669	 0.044203

9 6 3 2 F
