%nprocshared=1
%mem=2GB
#HF/6-31G* nosymm scf=tight 

Mol

0 1
H	 0.589552	 4.727506	 0.664260
N	 -0.213769	 4.136864	 0.567500
C	 0.185586	 2.760543	 0.311017
H	 -0.746716	 4.496862	 -0.201395
C	 -1.035139	 1.847800	 0.261178
H	 0.833658	 2.448415	 1.124306
H	 0.762028	 2.645544	 -0.610334
C	 -0.679275	 0.379305	 0.025956
H	 -1.583125	 1.956802	 1.192663
H	 -1.701922	 2.188278	 -0.530536
C	 -1.903357	 -0.536963	 -0.023547
H	 -0.010518	 0.039260	 0.815249
H	 -0.123611	 0.283629	 -0.905672
C	 -3.225172	 0.228290	 0.028445
H	 -1.867824	 -1.134999	 -0.931459
H	 -1.860449	 -1.239604	 0.805977
H	 -3.313397	 0.915643	 -0.808262
H	 -4.073500	 -0.448134	 -0.008893
H	 -3.306061	 0.809945	 0.942516

6 3 5 9 F
12 8 5 9 F
1 2 3 6 F
