%nprocshared=4
%mem=2GB
#HF/6-31G* nosymm scf=tight opt=ModRedundant

Mol

0 1
H	 -2.698709	 -0.000305	 0.034435
C	 -1.693833	 0.000034	 0.434417
O	 -0.828952	 -0.000968	 -0.659236
H	 -1.574200	 0.882896	 1.055746
H	 -1.574147	 -0.881698	 1.057355
C	 -0.742598	 -1.163998	 -1.449430
C	 -0.188163	 -2.357966	 -0.674860
C	 -2.056546	 -1.490250	 -2.156579
H	 -0.016429	 -0.893771	 -2.206852
H	 0.715846	 -2.076177	 -0.145794
H	 0.055390	 -3.163961	 -1.359907
H	 -0.900424	 -2.746850	 0.045985
H	 -2.446104	 -0.607744	 -2.652445
H	 -1.893673	 -2.258139	 -2.906435
H	 -2.811858	 -1.859743	 -1.470416

6 3 2 1 F
