%nprocshared=4
%mem=2GB
#HF/cc-pVTZ nosymm scf=tight opt=ModRedundant

Mol

0 1
O	 -2.071633	 -1.227563	 -0.223463
C	 -1.652164	 -0.152425	 0.058082
C	 -0.327811	 0.006324	 0.778296
C	 -2.402515	 1.108629	 -0.298924
C	 0.843231	 -0.001575	 -0.211665
H	 -0.319484	 0.928173	 1.350354
H	 -0.227804	 -0.823091	 1.466705
C	 1.943856	 0.983943	 0.169919
H	 0.482804	 0.234287	 -1.209741
H	 1.251431	 -1.005341	 -0.258491
C	 3.116325	 0.970535	 -0.804915
H	 1.528087	 1.986451	 0.221275
H	 2.301402	 0.749649	 1.168321
H	 2.796038	 1.235636	 -1.806999
H	 3.572814	 -0.012121	 -0.853623
H	 3.881830	 1.676617	 -0.505162
H	 -3.240910	 0.874416	 -0.936711
H	 -1.747554	 1.818823	 -0.790984
H	 -2.760419	 1.579708	 0.610998

9 5 3 2 F
