%nprocshared=4
%mem=2GB
#HF/cc-pVTZ nosymm scf=tight opt=ModRedundant

Mol

0 1
O	 -0.616166	 -0.033383	 0.383406
C	 0.485107	 0.171416	 -0.000134
C	 1.606966	 -0.836201	 0.000174
O	 0.881807	 1.333644	 -0.488437
C	 2.988788	 -0.202529	 -0.000115
H	 1.465110	 -1.474645	 -0.864821
H	 1.465209	 -1.474077	 0.865596
H	 3.131767	 0.419673	 -0.873407
H	 3.750876	 -0.972315	 0.000098
H	 3.131883	 0.420264	 0.872742
C	 -0.070696	 2.385762	 -0.552258
C	 0.617349	 3.596552	 -1.137979
H	 -0.444659	 2.584181	 0.442291
H	 -0.905409	 2.069873	 -1.162006
H	 1.451737	 3.902947	 -0.519683
H	 -0.083544	 4.420587	 -1.200806
H	 0.988309	 3.385756	 -2.133129

4 2 3 6 F
