%nprocshared=4
%mem=2GB
#HF/cc-pVTZ nosymm scf=tight opt=ModRedundant

Mol

0 1
O	 0.555279	 1.270894	 0.433540
C	 0.485107	 0.171416	 -0.000134
C	 1.606966	 -0.836201	 0.000174
O	 -0.608238	 -0.325359	 -0.551855
C	 2.988788	 -0.202529	 -0.000115
H	 1.465110	 -1.474645	 -0.864821
H	 1.465209	 -1.474077	 0.865596
H	 3.131767	 0.419673	 -0.873407
H	 3.750876	 -0.972315	 0.000098
H	 3.131883	 0.420264	 0.872742
C	 -1.753829	 0.511777	 -0.623356
C	 -2.859077	 -0.274072	 -1.289206
H	 -1.506160	 1.401831	 -1.184436
H	 -2.030607	 0.817573	 0.375747
H	 -2.570256	 -0.575594	 -2.288225
H	 -3.750874	 0.337413	 -1.360039
H	 -3.097748	 -1.163138	 -0.719147

4 2 3 6 F
