%nprocshared=4
%mem=2GB
#HF/6-31G* nosymm scf=tight opt=ModRedundant

Mol

0 1
H	 -3.420663	 1.227371	 -1.044276
O	 -3.452007	 0.283848	 -0.965577
C	 -3.181085	 -0.079926	 0.364119
C	 -1.765924	 0.277073	 0.805136
H	 -3.327791	 -1.152017	 0.410903
H	 -3.905698	 0.375695	 1.036898
C	 -1.689642	 1.562042	 1.630699
H	 -1.353056	 -0.553283	 1.378731
H	 -1.143788	 0.370195	 -0.083399
C	 -0.268592	 1.898939	 2.087094
H	 -2.340010	 1.469587	 2.495096
H	 -2.083681	 2.386938	 1.039367
C	 -0.199384	 3.189541	 2.907850
H	 0.122537	 1.067460	 2.668541
H	 0.378669	 1.993544	 1.216055
C	 1.215931	 3.616909	 3.313307
H	 -0.810723	 3.080098	 3.802267
H	 -0.650159	 3.993763	 2.330055
C	 1.913751	 2.664274	 4.285901
H	 1.160327	 4.601852	 3.770564
H	 1.826583	 3.732068	 2.419973
H	 1.319520	 2.520014	 5.184354
H	 2.877970	 3.060888	 4.588915
H	 2.088317	 1.688646	 3.844494

7 4 3 2 F
