%nprocshared=4
%mem=2GB
#HF/cc-pVTZ nosymm scf=tight 
prop=(read,field)

Mol

0 1
O	 -2.071745	 -1.227631	 -0.223482
C	 -1.652276	 -0.152493	 0.058063
C	 -0.327923	 0.006256	 0.778277
C	 -2.402627	 1.108561	 -0.298943
C	 0.843119	 -0.001643	 -0.211684
H	 -0.319596	 0.928105	 1.350335
H	 -0.227916	 -0.823159	 1.466686
C	 2.197581	 0.137962	 0.476918
H	 0.722832	 0.805134	 -0.930249
H	 0.813864	 -0.927046	 -0.776607
C	 3.366000	 0.117964	 -0.502653
H	 2.218947	 1.063289	 1.045985
H	 2.315847	 -0.666581	 1.196823
H	 3.294413	 0.933172	 -1.214935
H	 3.389325	 -0.809663	 -1.064198
H	 4.312535	 0.214731	 0.016104
H	 -3.241022	 0.874348	 -0.936730
H	 -1.747666	 1.818755	 -0.791003
H	 -2.760531	 1.579640	 0.610979

@grid.dat /N
