%nprocshared=1
%mem=2GB
#HF/6-31G* nosymm scf=tight opt=ModRedundant

Mol

0 1
O	 2.168066	 0.190786	 -1.101455
C	 2.701189	 0.057885	 -0.047330
C	 2.741663	 1.088643	 1.054798
O	 3.347903	 -1.046386	 0.304773
C	 1.998679	 2.374990	 0.700676
H	 2.338685	 0.618144	 1.945545
H	 3.787901	 1.288355	 1.272052
C	 2.118900	 3.470300	 1.765728
H	 0.951790	 2.147339	 0.523707
H	 2.386413	 2.750345	 -0.240171
C	 1.442487	 3.148677	 3.101443
H	 1.679358	 4.380342	 1.364043
H	 3.170585	 3.694339	 1.938284
C	 1.495338	 4.314426	 4.091006
H	 0.403442	 2.877878	 2.920134
H	 1.909589	 2.279080	 3.558160
C	 0.827007	 4.002579	 5.431236
H	 1.017563	 5.185749	 3.646301
H	 2.533682	 4.592719	 4.264480
C	 0.880753	 5.173161	 6.412333
H	 -0.210398	 3.723319	 5.259632
H	 1.306077	 3.134552	 5.879343
H	 0.399320	 4.921561	 7.352294
H	 0.378842	 6.047404	 6.007390
H	 1.907015	 5.454415	 6.631325
C	 4.728119	 -1.109107	 -0.004993
H	 4.882018	 -1.033965	 -1.071845
H	 5.068212	 -2.067527	 0.355250
H	 5.265056	 -0.311663	 0.488280

1 2 4 26 F
