%nprocshared=1
%mem=2GB
#HF/6-31G* nosymm scf=tight 

Mol

0 1
H	 -3.420663	 1.227371	 -1.044276
O	 -3.452007	 0.283848	 -0.965577
C	 -3.181085	 -0.079926	 0.364119
C	 -1.765924	 0.277073	 0.805136
H	 -3.327791	 -1.152017	 0.410903
H	 -3.905698	 0.375695	 1.036898
C	 -0.677594	 -0.417312	 -0.014550
H	 -1.637766	 1.358238	 0.744969
H	 -1.659588	 0.017670	 1.857098
C	 0.738335	 -0.034840	 0.421385
H	 -0.814977	 -0.178223	 -1.064632
H	 -0.802730	 -1.495410	 0.071702
C	 1.757019	 -0.134998	 -0.717182
H	 0.724553	 0.976903	 0.819639
H	 1.052110	 -0.681021	 1.240287
C	 3.206278	 0.152847	 -0.308587
H	 1.468930	 0.544015	 -1.518208
H	 1.710148	 -1.136979	 -1.138672
C	 3.467763	 1.593438	 0.134954
H	 3.853364	 -0.074370	 -1.152353
H	 3.497408	 -0.528784	 0.488172
H	 3.174060	 2.298830	 -0.637898
H	 4.522875	 1.748557	 0.338707
H	 2.922231	 1.846096	 1.038127

20 16 13 17 F
17 13 10 7 F
11 7 4 3 F
1 2 3 5 F
7 4 3 2 F
