%nprocshared=1
%mem=2GB
#HF/6-31G* nosymm scf=tight 

Mol

0 1
H	 -0.916873	 3.008049	 3.466266
O	 -0.229930	 2.422974	 3.180431
C	 -0.615722	 1.788324	 1.988385
C	 0.507252	 0.860284	 1.560110
H	 -1.533091	 1.220143	 2.136412
H	 -0.809774	 2.523396	 1.208415
C	 0.198102	 0.111031	 0.262842
H	 0.693130	 0.154390	 2.365027
H	 1.413020	 1.449442	 1.446292
C	 1.331804	 -0.827780	 -0.158768
H	 -0.722995	 -0.453214	 0.386855
H	 0.013588	 0.828120	 -0.536068
C	 2.723619	 -0.410569	 0.329459
H	 1.342964	 -0.912588	 -1.244120
H	 1.116806	 -1.824343	 0.220779
C	 3.243875	 0.895854	 -0.272975
H	 3.424222	 -1.207124	 0.091250
H	 2.714788	 -0.329854	 1.414619
H	 3.251977	 0.848779	 -1.358681
H	 2.637085	 1.747371	 0.016682
H	 4.259473	 1.094070	 0.055697

2 3 4 8 F
8 4 7 10 F
16 13 10 14 F
1 2 3 5 F
