%nprocshared=1
%mem=2GB
#HF/6-31G* nosymm scf=tight opt=ModRedundant

Mol

0 1
H	 2.786273	 -2.634945	 -2.112767
C	 2.672674	 -2.068037	 -1.194366
C	 1.414226	 -1.202202	 -1.234397
H	 2.635325	 -2.777000	 -0.372050
H	 3.565715	 -1.462440	 -1.067965
C	 1.217350	 -0.386724	 0.039429
H	 0.536801	 -1.822979	 -1.386546
H	 1.468395	 -0.527737	 -2.087365
N	 0.000003	 0.397874	 -0.023260
H	 1.137100	 -1.061012	 0.887875
H	 2.103062	 0.231903	 0.218854
C	 -1.217365	 -0.386708	 0.039277
H	 -0.000031	 1.072115	 0.718656
C	 -2.452633	 0.504241	 -0.042481
H	 -1.215291	 -1.074557	 -0.802042
H	 -1.269739	 -1.003477	 0.942735
C	 -3.758029	 -0.289423	 -0.010781
H	 -2.394220	 1.093569	 -0.952170
H	 -2.440793	 1.210787	 0.785871
H	 -3.816659	 -0.981993	 -0.845726
H	 -4.617837	 0.370165	 -0.069296
H	 -3.847478	 -0.867502	 0.904682

10 6 9 12 F
