%nprocshared=4
%mem=2GB
#HF/6-31G* nosymm scf=tight opt=ModRedundant

Mol

0 1
H	 5.283091	 1.167605	 0.921202
C	 4.741649	 0.494557	 0.263655
C	 3.267180	 0.407065	 0.655395
H	 4.853474	 0.863125	 -0.751724
H	 5.222192	 -0.478556	 0.317781
C	 2.475090	 -0.540216	 -0.248523
H	 2.826465	 1.397918	 0.615631
H	 3.188886	 0.068794	 1.687448
C	 0.999077	 -0.662303	 0.130617
H	 2.548004	 -0.206706	 -1.277648
H	 2.922425	 -1.530646	 -0.204008
C	 0.169600	 0.576866	 -0.172154
H	 0.544203	 -1.482454	 -0.422748
H	 0.887760	 -0.919603	 1.181608
C	 -1.181045	 0.701995	 0.511084
O	 0.551730	 1.415305	 -0.932024
C	 -2.285934	 -0.139295	 -0.145128
H	 -1.449051	 1.751551	 0.493206
H	 -1.071135	 0.403303	 1.551943
C	 -3.651768	 0.085446	 0.506485
H	 -2.346596	 0.110469	 -1.202272
H	 -2.034737	 -1.195320	 -0.088721
C	 -4.759797	 -0.746382	 -0.137905
H	 -3.908762	 1.140117	 0.445781
H	 -3.588286	 -0.154158	 1.565709
H	 -4.868882	 -0.505166	 -1.191300
H	 -4.548009	 -1.809175	 -0.062213
H	 -5.715422	 -0.564821	 0.343442

16 12 15 17 F
