%nprocshared=1
%mem=2GB
#HF/6-31G* nosymm scf=tight 

Mol

0 1
H	 -2.172150	 0.880146	 0.502514
C	 -2.018062	 -0.000025	 -0.114509
O	 -0.774054	 0.001095	 -0.743181
H	 -2.760490	 0.003458	 -0.901350
H	 -2.173624	 -0.884374	 0.496163
C	 0.378774	 0.386946	 -0.016106
C	 1.509512	 0.251215	 -1.033466
C	 0.273092	 1.840394	 0.456662
C	 0.625791	 -0.553047	 1.168171
H	 1.324305	 0.895498	 -1.885540
H	 1.569395	 -0.770566	 -1.390891
H	 2.464550	 0.521873	 -0.594938
H	 0.027068	 2.489441	 -0.377148
H	 1.218021	 2.168578	 0.877382
H	 -0.484081	 1.967466	 1.222884
H	 0.627962	 -1.585283	 0.834200
H	 1.587525	 -0.339649	 1.623211
H	 -0.128684	 -0.445744	 1.940107

2 3 6 7 F
