%nprocshared=1
%mem=2GB
#HF/6-31G* nosymm scf=tight 

Mol

0 1
H	 3.276176	 0.174363	 -0.109463
N	 2.434251	 -0.367735	 -0.081097
C	 1.267428	 0.496480	 0.024474
H	 2.501951	 -0.965776	 0.720575
C	 -0.016086	 -0.325158	 -0.029487
H	 1.288818	 1.183521	 -0.816092
H	 1.267576	 1.109062	 0.929528
C	 -1.282277	 0.529072	 0.046735
H	 -0.012495	 -0.908639	 -0.945788
H	 -0.015903	 -1.041248	 0.791956
C	 -2.560074	 -0.281753	 -0.166567
H	 -1.229419	 1.319102	 -0.699621
H	 -1.328832	 1.025742	 1.013745
H	 -2.560091	 -0.763018	 -1.140274
H	 -3.441243	 0.349726	 -0.109158
H	 -2.660707	 -1.059386	 0.585352

6 3 5 9 F
1 2 3 6 F
