%nprocshared=4
%mem=2GB
#HF/cc-pVTZ nosymm scf=tight opt=ModRedundant

Mol

0 1
O	 -1.078606	 2.421602	 1.225748
C	 -1.129486	 1.871472	 0.173988
C	 0.111037	 1.265909	 -0.452465
C	 -2.428397	 1.729201	 -0.583216
C	 0.376695	 -0.140025	 0.100361
H	 0.946432	 1.912854	 -0.216482
H	 0.005681	 1.224206	 -1.531365
C	 1.630207	 -0.772146	 -0.501001
H	 0.466225	 -0.070204	 1.177087
H	 -0.478014	 -0.780981	 -0.101995
C	 2.907848	 -0.545876	 0.309149
H	 1.772784	 -0.391628	 -1.509394
H	 1.468529	 -1.842059	 -0.599744
C	 3.373802	 0.906639	 0.372125
H	 3.699140	 -1.146831	 -0.127906
H	 2.764321	 -0.923458	 1.318191
H	 3.519798	 1.311927	 -0.623875
H	 4.316899	 0.983758	 0.900700
H	 2.661122	 1.540651	 0.885346
H	 -2.381782	 2.328068	 -1.487198
H	 -3.253417	 2.062428	 0.027416
H	 -2.583010	 0.700351	 -0.888422

3 5 8 12 F
