%nprocshared=4
%mem=2GB
#HF/cc-pVTZ nosymm scf=tight opt=ModRedundant

Mol

0 1
H	 -1.835082	 1.385983	 0.000069
C	 -1.300516	 0.441153	 -0.000028
O	 -0.006604	 0.654344	 -0.000106
O	 -1.828920	 -0.612308	 0.000113
C	 0.454322	 1.931497	 -0.431674
C	 1.961919	 1.931723	 -0.343044
H	 0.017287	 2.692109	 0.199538
H	 0.113942	 2.102187	 -1.443093
H	 2.288321	 1.755913	 0.674071
H	 2.345598	 2.892294	 -0.665451
H	 2.385465	 1.163003	 -0.976801

5 3 2 4 F
