%nprocshared=4
%mem=2GB
#HF/cc-pVTZ nosymm scf=tight opt=ModRedundant

Mol

0 1
H	 -1.988505	 1.660668	 -1.301087
C	 -0.979431	 1.272720	 -1.348378
C	 -0.600949	 0.658697	 -0.000002
H	 -0.311610	 2.084209	 -1.604476
H	 -0.932850	 0.533174	 -2.136406
C	 0.763408	 0.112229	 -0.000006
H	 -0.659498	 1.397211	 0.788733
H	 -1.277239	 -0.145087	 0.259800
N	 1.806008	 -0.317179	 0.000007

7 3 6 9 F
