%nprocshared=1
%mem=2GB
#HF/6-31G* nosymm scf=tight opt=ModRedundant

Mol

0 1
H	 -3.420663	 1.227371	 -1.044276
O	 -3.452007	 0.283848	 -0.965577
C	 -3.181085	 -0.079926	 0.364119
C	 -1.765924	 0.277073	 0.805136
H	 -3.327791	 -1.152017	 0.410903
H	 -3.905698	 0.375695	 1.036898
C	 -0.708956	 -0.722013	 0.332737
H	 -1.520342	 1.273535	 0.436739
H	 -1.752738	 0.344223	 1.891662
C	 0.709983	 -0.342473	 0.761388
H	 -0.755225	 -0.805297	 -0.748759
H	 -0.952821	 -1.707832	 0.725274
C	 1.761704	 -1.350302	 0.289956
H	 0.943575	 0.646602	 0.374627
H	 0.751374	 -0.263354	 1.847036
C	 3.188469	 -1.060705	 0.770197
H	 1.752389	 -1.397429	 -0.797880
H	 1.475100	 -2.340540	 0.637956
C	 3.801170	 0.222531	 0.206010
H	 3.821909	 -1.899880	 0.493015
H	 3.200353	 -1.018818	 1.857536
H	 3.791258	 0.214385	 -0.880716
H	 4.833410	 0.329559	 0.525167
H	 3.266301	 1.107266	 0.535133

7 4 3 2 F
