%nprocshared=4
%mem=2GB
#HF/6-31G* nosymm scf=tight opt=ModRedundant

Mol

0 1
H	 -1.836216	 1.387520	 -0.000064
C	 -1.301823	 0.443321	 -0.000031
O	 -0.003969	 0.658512	 0.000451
O	 -1.829879	 -0.616434	 -0.000857
C	 0.847445	 -0.465591	 -0.220172
C	 2.276214	 0.031306	 -0.175094
H	 0.604569	 -0.904084	 -1.178323
H	 0.654635	 -1.204989	 0.544948
H	 2.448823	 0.776740	 -0.942928
H	 2.958870	 -0.795846	 -0.339512
H	 2.499292	 0.474416	 0.788637

5 3 2 4 F
