%nprocshared=1
%mem=2GB
#HF/6-31G* nosymm scf=tight opt=ModRedundant

Mol

0 1
O	 3.225979	 0.970355	 -0.599647
C	 2.701189	 0.057885	 -0.047330
C	 1.245376	 -0.013843	 0.345420
O	 3.347903	 -1.046386	 0.304773
C	 0.455112	 1.231400	 -0.050772
H	 0.838542	 -0.913825	 -0.103701
H	 1.208210	 -0.175333	 1.419774
C	 -0.998893	 1.219485	 0.433193
H	 0.482531	 1.345121	 -1.130325
H	 0.957290	 2.103070	 0.354729
C	 -1.883438	 0.145884	 -0.207175
H	 -1.431207	 2.195402	 0.224832
H	 -1.019646	 1.105716	 1.516076
C	 -3.229479	 -0.016665	 0.501876
H	 -2.055849	 0.400791	 -1.251740
H	 -1.368863	 -0.812336	 -0.207476
C	 -4.119657	 -1.090514	 -0.126266
H	 -3.757129	 0.935579	 0.494792
H	 -3.057695	 -0.261033	 1.549002
C	 -5.463461	 -1.243880	 0.585332
H	 -4.291496	 -0.848404	 -1.172925
H	 -3.595664	 -2.043986	 -0.116144
H	 -6.071481	 -2.011907	 0.117302
H	 -6.027557	 -0.315737	 0.562032
H	 -5.326238	 -1.519923	 1.627083
C	 4.728119	 -1.109107	 -0.004993
H	 4.882018	 -1.033965	 -1.071845
H	 5.068212	 -2.067527	 0.355250
H	 5.265056	 -0.311663	 0.488280

15 11 8 5 F
