%nprocshared=4
%mem=2GB
#HF/cc-pVTZ nosymm scf=tight opt=ModRedundant

Mol

0 1
O	 -1.510770	 1.240811	 -0.054933
C	 -1.081510	 0.147522	 0.122720
C	 0.327029	 -0.064006	 0.641890
C	 -1.903028	 -1.084121	 -0.174656
C	 1.349460	 -0.017068	 -0.500215
H	 0.399029	 -1.014606	 1.159950
H	 0.538021	 0.726928	 1.350471
C	 1.306823	 1.300434	 -1.265796
H	 2.349058	 -0.170851	 -0.103992
H	 1.152328	 -0.841538	 -1.175283
H	 2.029782	 1.302922	 -2.072862
H	 1.531358	 2.140066	 -0.616679
H	 0.326432	 1.468227	 -1.697710
H	 -1.341891	 -1.779207	 -0.789259
H	 -2.820449	 -0.808163	 -0.671328
H	 -2.133314	 -1.593056	 0.755831

9 5 3 2 F
