%nprocshared=1
%mem=2GB
#HF/6-31G* nosymm scf=tight opt=ModRedundant

Mol

0 1
H	 -3.135461	 -1.215070	 0.001379
O	 -2.310168	 -0.871793	 -0.309793
C	 -2.026376	 0.340750	 0.341611
C	 -0.673256	 0.843270	 -0.132153
H	 -2.792215	 1.080697	 0.115987
H	 -2.013526	 0.200402	 1.421792
C	 0.486613	 -0.083066	 0.235839
H	 -0.715586	 0.970948	 -1.210718
H	 -0.508072	 1.829858	 0.297090
C	 0.611305	 -0.312001	 1.743106
H	 1.411486	 0.335699	 -0.147253
H	 0.351057	 -1.042375	 -0.262350
C	 1.766780	 -1.242382	 2.110448
H	 0.747559	 0.645285	 2.241859
H	 -0.319772	 -0.725335	 2.126115
H	 2.716542	 -0.839022	 1.771119
H	 1.832337	 -1.384506	 3.184900
H	 1.642633	 -2.220723	 1.654435

10 7 4 8 F
