%nprocshared=1
%mem=2GB
#HF/6-31G* nosymm scf=tight 
prop=(read,field)

Mol

0 1
H	 -0.495157	 -1.652395	 0.000910
N	 -0.626947	 -0.667363	 -0.000092
C	 -1.979717	 -0.158706	 0.000050
C	 0.469282	 0.129160	 0.000148
H	 -2.520249	 -0.492358	 -0.879443
H	 -1.934745	 0.918180	 -0.004428
H	 -2.517794	 -0.484986	 0.883818
C	 1.788929	 -0.616170	 -0.000037
O	 0.411093	 1.327837	 -0.000049
H	 1.872799	 -1.245705	 -0.880381
H	 2.595417	 0.101646	 0.003713
H	 1.870092	 -1.252102	 0.875943

@grid.dat /N
