%nprocshared=4
%mem=2GB
#HF/cc-pVTZ nosymm scf=tight opt=ModRedundant

Mol

0 1
H	 3.721907	 -0.933076	 -0.066039
O	 2.824271	 -1.154299	 0.131461
C	 2.076458	 -0.067370	 -0.038225
C	 0.626018	 -0.337582	 0.258241
O	 2.538288	 0.965419	 -0.381593
C	 -0.267326	 0.883135	 0.076490
H	 0.325620	 -1.161483	 -0.378003
H	 0.574537	 -0.713685	 1.275261
C	 -1.726822	 0.642622	 0.463839
H	 -0.210803	 1.217591	 -0.953497
H	 0.129920	 1.693110	 0.675679
C	 -2.450172	 1.854464	 1.048856
H	 -1.752811	 -0.160516	 1.194284
H	 -2.276532	 0.279509	 -0.401848
C	 -3.865973	 1.527799	 1.512834
H	 -1.876868	 2.241200	 1.887183
H	 -2.496496	 2.653303	 0.315599
H	 -4.355621	 2.402479	 1.924977
H	 -3.858977	 0.760151	 2.279232
H	 -4.473387	 1.165936	 0.689877

12 9 6 10 F
