%nprocshared=4
%mem=2GB
#HF/cc-pVTZ nosymm scf=tight opt=ModRedundant

Mol

0 1
H	 -3.436473	 1.252944	 -1.023892
O	 -3.458596	 0.315260	 -0.960865
C	 -3.176635	 -0.080824	 0.355601
C	 -1.763371	 0.265266	 0.799691
H	 -3.321825	 -1.153438	 0.379502
H	 -3.895468	 0.357385	 1.043382
C	 -0.673390	 -0.426948	 -0.013392
H	 -1.631049	 1.344913	 0.747560
H	 -1.664587	 -0.001624	 1.849167
C	 -1.122294	 -1.758545	 -0.609467
H	 0.196037	 -0.584278	 0.615303
H	 -0.354273	 0.236556	 -0.813662
C	 -2.477129	 -1.670538	 -1.309271
H	 -0.366137	 -2.104599	 -1.307580
H	 -1.175661	 -2.507176	 0.178291
C	 -3.663684	 -1.398507	 -0.383024
H	 -2.656828	 -2.591380	 -1.859368
H	 -2.432635	 -0.879081	 -2.052397
C	 -3.977230	 -2.523872	 0.600026
H	 -4.541995	 -1.217723	 -0.995121
H	 -3.484904	 -0.478696	 0.167800
H	 -4.154822	 -3.458558	 0.077627
H	 -4.866629	 -2.294536	 1.175887
H	 -3.168649	 -2.686314	 1.302461

11 7 4 3 F
