%nprocshared=1
%mem=2GB
#HF/6-31G* nosymm scf=tight opt=ModRedundant

Mol

0 1
H	 -3.420663	 1.227371	 -1.044276
O	 -3.452007	 0.283848	 -0.965577
C	 -3.181085	 -0.079926	 0.364119
C	 -1.765924	 0.277073	 0.805136
H	 -3.327791	 -1.152017	 0.410903
H	 -3.905698	 0.375695	 1.036898
C	 -0.677594	 -0.417312	 -0.014550
H	 -1.637766	 1.358238	 0.744969
H	 -1.659588	 0.017670	 1.857098
C	 0.738335	 -0.034840	 0.421385
H	 -0.814977	 -0.178223	 -1.064632
H	 -0.802730	 -1.495410	 0.071702
C	 1.822265	 -0.738362	 -0.399735
H	 0.853533	 1.043532	 0.342250
H	 0.871597	 -0.279636	 1.474438
C	 2.493592	 0.139641	 -1.462084
H	 1.395940	 -1.618183	 -0.879170
H	 2.589276	 -1.105651	 0.278946
C	 1.568871	 0.583806	 -2.596992
H	 3.327315	 -0.412907	 -1.888565
H	 2.924971	 1.016651	 -0.983577
H	 1.112831	 -0.272772	 -3.086320
H	 2.121251	 1.137711	 -3.349921
H	 0.769831	 1.226440	 -2.242424

17 13 10 7 F
