%nprocshared=4
%mem=2GB
#HF/cc-pVTZ nosymm scf=tight opt=ModRedundant

Mol

0 1
H	 1.651322	 -0.822465	 0.000000
O	 0.729993	 -1.034364	 0.000000
C	 0.037305	 0.100061	 0.000000
C	 -1.370419	 -0.100877	 -0.475407
O	 0.507959	 1.129014	 0.341373
H	 -1.358451	 -0.506644	 -1.478741
H	 -1.894620	 0.840236	 -0.459736
H	 -1.868699	 -0.818204	 0.163832

4 3 2 1 F
