%nprocshared=4
%mem=2GB
#HF/cc-pVTZ nosymm scf=tight opt=ModRedundant

Mol

0 1
H	 6.830139	 -7.991321	 -3.594019
O	 6.919685	 -7.395448	 -2.873778
C	 7.556133	 -6.217560	 -3.294236
C	 8.558188	 -5.676360	 -2.285438
H	 8.068127	 -6.470239	 -4.212929
H	 6.819522	 -5.453637	 -3.535641
C	 9.513875	 -6.727279	 -1.725008
H	 9.126069	 -4.879435	 -2.756159
H	 7.999627	 -5.225988	 -1.468387
C	 8.809893	 -7.753627	 -0.838522
H	 10.295453	 -6.234410	 -1.156485
H	 10.004127	 -7.243885	 -2.548451
C	 9.707049	 -8.873928	 -0.309099
H	 8.343416	 -7.241276	 -0.000594
H	 7.999755	 -8.202305	 -1.406706
C	 10.241084	 -9.831777	 -1.372619
H	 10.551525	 -8.421058	 0.203052
H	 9.165836	 -9.440191	 0.445613
C	 9.151216	 -10.700456	 -1.995512
H	 10.998950	 -10.473355	 -0.928227
H	 10.738150	 -9.275005	 -2.161247
C	 7.925230	 -9.904665	 -2.430904
H	 9.559852	 -11.229120	 -2.852314
H	 8.850184	 -11.463856	 -1.283007
H	 8.187951	 -9.153369	 -3.168311
H	 7.173397	 -10.550114	 -2.870506
H	 7.470331	 -9.393793	 -1.588627

4 3 2 1 F
