%nprocshared=1
%mem=2GB
#HF/6-31G* nosymm scf=tight 

Mol

0 1
O	 1.840160	 1.307606	 0.116815
C	 1.684305	 0.151502	 0.345401
C	 0.361322	 -0.574807	 0.337857
O	 2.682710	 -0.671414	 0.640583
C	 -0.823008	 0.326187	 0.001381
H	 0.445403	 -1.395246	 -0.369620
H	 0.239398	 -1.037482	 1.313452
C	 -2.149452	 -0.435131	 -0.000098
H	 -0.659431	 0.784300	 -0.968961
H	 -0.866388	 1.141764	 0.716407
C	 -3.368779	 0.488503	 -0.000883
H	 -2.193746	 -1.087250	 -0.871175
H	 -2.195311	 -1.087803	 0.870418
C	 -4.693822	 -0.272754	 -0.001129
H	 -3.325798	 1.139422	 -0.871284
H	 -3.326423	 1.139959	 0.869145
H	 -4.781274	 -0.907928	 -0.878124
H	 -5.538651	 0.408946	 -0.001420
H	 -4.781694	 -0.907783	 0.875984
C	 3.984153	 -0.114908	 0.679317
H	 4.249386	 0.298727	 -0.283017
H	 4.645755	 -0.928809	 0.931752
H	 4.043273	 0.661790	 1.428151

15 11 8 12 F
1 2 3 6 F
9 5 3 6 F
1 2 4 20 F
