%nprocshared=4
%mem=2GB
#HF/cc-pVTZ nosymm scf=tight opt=ModRedundant

Mol

0 1
H	 -2.698799	 -0.000846	 0.036018
C	 -1.694291	 -0.000483	 0.434279
O	 -0.828718	 -0.000608	 -0.655022
H	 -1.576855	 0.881100	 1.056504
H	 -1.576401	 -0.881658	 1.057001
C	 0.557892	 0.000078	 -0.420099
C	 1.369124	 0.144391	 -1.702811
C	 0.971248	 1.011452	 0.643155
H	 0.742048	 -0.990314	 -0.022822
H	 1.024791	 -0.562050	 -2.448086
H	 2.414833	 -0.056708	 -1.500825
H	 1.303429	 1.142815	 -2.119245
H	 0.351055	 0.906270	 1.524824
H	 2.002538	 0.841961	 0.930360
H	 0.894890	 2.032866	 0.289003

9 6 3 2 F
