%nprocshared=4
%mem=2GB
#HF/cc-pVTZ nosymm scf=tight opt=ModRedundant

Mol

0 1
H	 1.205842	 -2.312386	 0.000119
C	 0.235830	 -1.844509	 -0.000118
O	 0.462329	 -0.453336	 -0.000137
H	 -0.307105	 -2.151109	 0.885002
H	 -0.306723	 -2.151204	 -0.885449
C	 -0.590565	 0.341382	 0.000062
O	 -1.693898	 -0.053880	 0.000252
H	 -0.340426	 1.403822	 0.000200

2 3 6 7 F
