%nprocshared=4
%mem=2GB
#HF/cc-pVTZ nosymm scf=tight 
prop=(read,field)

Mol

0 1
H	 3.889744	 0.356859	 -0.089508
N	 3.091408	 -0.241223	 -0.065536
C	 1.861118	 0.530241	 0.016258
H	 3.192706	 -0.835843	 0.730400
C	 0.644270	 -0.381772	 -0.031062
H	 1.835861	 1.204659	 -0.833112
H	 1.808929	 1.151968	 0.911069
C	 -0.677975	 0.376684	 0.025733
H	 0.694138	 -0.977154	 -0.936843
H	 0.693449	 -1.082149	 0.800525
C	 -1.900566	 -0.535538	 -0.022486
H	 -0.725156	 1.079509	 -0.802980
H	 -0.715334	 0.974877	 0.933280
C	 -3.220373	 0.226847	 0.028041
H	 -1.864896	 -1.134404	 -0.928234
H	 -1.857808	 -1.236388	 0.806822
H	 -3.308958	 0.911842	 -0.808723
H	 -4.066698	 -0.449492	 -0.008084
H	 -3.301545	 0.809367	 0.939862

@grid.dat /N
