%nprocshared=1
%mem=2GB
#HF/6-31G* nosymm scf=tight opt=ModRedundant

Mol

0 1
O	 0.266953	 0.952112	 -0.866793
C	 0.486307	 0.169203	 0.000779
C	 1.608116	 -0.841643	 0.000302
O	 -0.242774	 0.078837	 1.104356
C	 2.990107	 -0.200498	 -0.000684
H	 1.468623	 -1.481519	 -0.865924
H	 1.469683	 -1.481289	 0.866878
H	 3.129736	 0.423364	 -0.875135
H	 3.757882	 -0.966877	 -0.001197
H	 3.130964	 0.423383	 0.873533
C	 -1.341318	 0.974159	 1.242196
C	 -2.007718	 0.674080	 2.568159
H	 -2.019651	 0.830233	 0.412296
H	 -0.975071	 1.990847	 1.199794
H	 -2.364082	 -0.349319	 2.596764
H	 -2.854468	 1.336855	 2.714415
H	 -1.313877	 0.817678	 3.388659

4 2 3 6 F
