%nprocshared=4
%mem=2GB
#HF/cc-pVTZ nosymm scf=tight opt=ModRedundant

Mol

0 1
H	 3.283645	 -0.487017	 -0.000000
C	 2.228138	 -0.292414	 -0.000000
C	 1.768840	 1.016164	 0.000000
C	 1.335991	 -1.345785	 -0.000000
H	 2.468361	 1.829468	 0.000000
C	 0.415592	 1.270175	 0.000000
H	 1.694164	 -2.356818	 -0.000000
C	 -0.022788	 -1.089092	 -0.000000
H	 0.041253	 2.274430	 0.000000
C	 -0.486398	 0.214248	 0.000000
H	 -0.722717	 -1.904122	 -0.000000
C	 -1.946525	 0.470130	 0.000000
O	 -2.779618	 -0.371226	 0.000000
H	 -2.227127	 1.528393	 0.000000

8 10 12 14 F
