%nprocshared=1
%mem=2GB
#HF/6-31G* nosymm scf=tight 

Mol

0 1
H	 -3.420663	 1.227371	 -1.044276
O	 -3.452007	 0.283848	 -0.965577
C	 -3.181085	 -0.079926	 0.364119
C	 -1.765924	 0.277073	 0.805136
H	 -3.327791	 -1.152017	 0.410903
H	 -3.905698	 0.375695	 1.036898
C	 -0.677594	 -0.417312	 -0.014550
H	 -1.637766	 1.358238	 0.744969
H	 -1.659588	 0.017670	 1.857098
C	 -1.231622	 -1.463524	 -0.983917
H	 0.034177	 -0.883187	 0.660025
H	 -0.121627	 0.333651	 -0.573432
C	 -0.136876	 -2.150061	 -1.805064
H	 -1.793694	 -2.204761	 -0.420835
H	 -1.942550	 -0.990217	 -1.660059
C	 -0.649456	 -3.143651	 -2.853965
H	 0.549823	 -2.661554	 -1.132371
H	 0.449017	 -1.385777	 -2.311441
C	 -1.340100	 -4.379810	 -2.274892
H	 0.192204	 -3.467735	 -3.461311
H	 -1.331641	 -2.632483	 -3.530377
H	 -0.685352	 -4.904739	 -1.584317
H	 -1.611811	 -5.074604	 -3.063734
H	 -2.248874	 -4.124596	 -1.739953

20 16 13 17 F
17 13 10 7 F
13 10 7 11 F
1 2 3 5 F
7 4 3 2 F
