%nprocshared=1
%mem=2GB
#HF/6-31G* nosymm scf=tight 

Mol

0 1
H	 -3.420663	 1.227371	 -1.044276
O	 -3.452007	 0.283848	 -0.965577
C	 -3.181085	 -0.079926	 0.364119
C	 -1.765924	 0.277073	 0.805136
H	 -3.327791	 -1.152017	 0.410903
H	 -3.905698	 0.375695	 1.036898
C	 -0.799647	 0.493497	 -0.360191
H	 -1.802838	 1.174475	 1.423416
H	 -1.396998	 -0.519355	 1.449199
C	 0.611665	 0.873263	 0.092750
H	 -1.195382	 1.265661	 -1.012776
H	 -0.754509	 -0.416261	 -0.956593
C	 1.574624	 1.082447	 -1.079017
H	 0.558451	 1.776602	 0.695714
H	 1.004850	 0.093954	 0.744431
C	 3.023364	 1.377864	 -0.674005
H	 1.206019	 1.891834	 -1.707283
H	 1.565599	 0.189299	 -1.700324
C	 3.221488	 2.709121	 0.053255
H	 3.638551	 1.376202	 -1.570572
H	 3.394937	 0.567018	 -0.050574
H	 2.847173	 3.537998	 -0.541714
H	 4.274631	 2.890576	 0.245092
H	 2.709090	 2.730223	 1.009376

20 16 13 17 F
17 13 10 7 F
13 10 7 11 F
11 7 4 3 F
1 2 3 5 F
