%nprocshared=1
%mem=2GB
#HF/6-31G* nosymm scf=tight opt=ModRedundant

Mol

0 1
H	 -2.646374	 -0.642757	 1.268656
C	 -2.083525	 -0.384536	 0.393091
O	 -0.807605	 -0.127164	 0.768327
F	 -2.118945	 -1.383102	 -0.486752
F	 -2.621877	 0.670592	 -0.209486
C	 0.084052	 0.273579	 -0.209957
C	 0.125331	 -0.834072	 -1.254737
Cl	 1.694368	 0.544244	 0.476221
H	 -0.221628	 1.184402	 -0.694453
F	 0.949010	 -0.515041	 -2.230396
F	 -1.080224	 -0.978623	 -1.767748
F	 0.499713	 -1.981840	 -0.744403

9 6 3 2 F
