%nprocshared=4
%mem=2GB
#HF/6-31G* nosymm scf=tight opt=ModRedundant

Mol

0 1
O	 3.225979	 0.970355	 -0.599647
C	 2.701189	 0.057885	 -0.047330
C	 1.245376	 -0.013843	 0.345420
O	 3.347903	 -1.046386	 0.304773
C	 0.383787	 -0.751343	 -0.677261
H	 1.202458	 -0.479166	 1.324615
H	 0.898121	 1.006591	 0.486220
C	 -1.112267	 -0.741881	 -0.345254
H	 0.733687	 -1.775175	 -0.769221
H	 0.534711	 -0.295125	 -1.649634
C	 -1.498294	 -1.519402	 0.916313
H	 -1.647791	 -1.165388	 -1.191764
H	 -1.457076	 0.287169	 -0.254845
C	 -3.010487	 -1.572287	 1.143194
H	 -1.109951	 -2.534175	 0.843899
H	 -1.027655	 -1.073804	 1.789762
C	 -3.407679	 -2.342329	 2.403910
H	 -3.488241	 -2.029546	 0.278381
H	 -3.401045	 -0.557719	 1.204973
C	 -4.919591	 -2.393722	 2.621119
H	 -3.017337	 -3.356094	 2.344282
H	 -2.934586	 -1.884127	 3.269943
H	 -5.169452	 -2.945769	 3.521908
H	 -5.419206	 -2.878369	 1.787034
H	 -5.335796	 -1.395009	 2.719197
C	 4.728119	 -1.109107	 -0.004993
H	 4.882018	 -1.033965	 -1.071845
H	 5.068212	 -2.067527	 0.355250
H	 5.265056	 -0.311663	 0.488280

6 3 2 1 F
