%nprocshared=4
%mem=2GB
#HF/6-31G* nosymm scf=tight opt=ModRedundant

Mol

0 1
O	 -0.495642	 0.517548	 -2.818909
C	 -1.113860	 0.563037	 -1.799022
C	 -0.889235	 -0.467034	 -0.705952
C	 -2.121644	 1.658123	 -1.529697
C	 0.379448	 -0.143569	 0.099626
H	 -0.777761	 -1.434386	 -1.183558
H	 -1.748278	 -0.514153	 -0.042739
C	 1.631333	 -0.777471	 -0.511575
H	 0.482768	 0.934507	 0.149241
H	 0.263088	 -0.495696	 1.123449
C	 2.915987	 -0.544314	 0.291766
H	 1.766672	 -0.399098	 -1.523130
H	 1.471257	 -1.849544	 -0.605828
C	 3.373361	 0.914346	 0.347591
H	 3.708709	 -1.142521	 -0.150311
H	 2.780642	 -0.921148	 1.303579
H	 3.506512	 1.320010	 -0.651625
H	 4.322697	 0.999599	 0.867103
H	 2.660624	 1.545032	 0.868198
H	 -3.119369	 1.230691	 -1.473916
H	 -2.089927	 2.393430	 -2.321594
H	 -1.924244	 2.135777	 -0.574352

6 3 5 8 F
