%nprocshared=1
%mem=2GB
#HF/6-31G* nosymm scf=tight 

Mol

0 1
H	 -3.261111	 -0.295142	 1.469456
C	 -3.306842	 -0.277400	 0.373456
C	 -2.660244	 0.921717	 -0.272021
O	 -3.838538	 -1.161155	 -0.216482
C	 -1.455380	 0.542494	 -1.144229
H	 -3.414372	 1.451322	 -0.842564
H	 -2.328091	 1.577463	 0.531923
C	 -1.832289	 -0.269179	 -2.386173
H	 -0.950699	 1.454530	 -1.448815
H	 -0.737049	 -0.015166	 -0.545252
C	 -0.623426	 -0.630100	 -3.251737
H	 -2.546906	 0.298244	 -2.978795
H	 -2.345571	 -1.181713	 -2.088915
C	 -1.005815	 -1.427953	 -4.501201
H	 -0.109031	 0.284142	 -3.536850
H	 0.084508	 -1.208159	 -2.659232
C	 0.181480	 -1.883565	 -5.357250
H	 -1.683203	 -0.835036	 -5.113809
H	 -1.567178	 -2.307785	 -4.193826
C	 0.961998	 -0.746286	 -6.018316
H	 -0.190321	 -2.547546	 -6.133678
H	 0.857530	 -2.479458	 -4.747504
H	 0.307430	 -0.123326	 -6.622245
H	 1.445811	 -0.106820	 -5.287575
H	 1.736783	 -1.139001	 -6.669836

6 3 5 8 F
3 5 8 12 F
12 8 11 14 F
8 11 14 18 F
20 17 14 18 F
