%nprocshared=4
%mem=2GB
#HF/6-31G* nosymm scf=tight opt=ModRedundant

Mol

0 1
H	 2.591676	 2.013956	 0.335017
O	 3.341076	 1.666752	 -0.126416
C	 3.569581	 0.339145	 0.272707
C	 2.648527	 -0.662386	 -0.415276
H	 4.598905	 0.126949	 0.013593
H	 3.483007	 0.246244	 1.354675
C	 1.166959	 -0.479736	 -0.076950
H	 2.790407	 -0.579770	 -1.489711
H	 2.963797	 -1.664607	 -0.129750
C	 0.274838	 -1.533157	 -0.739705
H	 0.849428	 0.511840	 -0.387299
H	 1.033777	 -0.527819	 1.003925
C	 -1.209393	 -1.447698	 -0.365407
H	 0.378035	 -1.460711	 -1.820884
H	 0.642590	 -2.519846	 -0.466020
C	 -1.927445	 -0.189206	 -0.860459
H	 -1.715766	 -2.319379	 -0.774768
H	 -1.311968	 -1.519620	 0.716324
C	 -3.426726	 -0.199097	 -0.554691
H	 -1.781673	 -0.092083	 -1.935368
H	 -1.483477	 0.696060	 -0.411574
C	 -4.144748	 1.058891	 -1.042107
H	 -3.881768	 -1.074440	 -1.013165
H	 -3.574459	 -0.305851	 0.517999
H	 -4.043141	 1.176580	 -2.117305
H	 -5.205176	 1.020924	 -0.812574
H	 -3.736944	 1.950114	 -0.573298

4 3 2 1 F
