%nprocshared=1
%mem=2GB
#HF/6-31G* nosymm scf=tight opt=ModRedundant

Mol

0 1
O	 0.576545	 -0.215998	 -0.169404
C	 1.705091	 0.115954	 0.001797
C	 2.177311	 1.527659	 0.250725
O	 2.721346	 -0.737485	 -0.000216
C	 1.046335	 2.551535	 0.265371
H	 2.720230	 1.527170	 1.191977
H	 2.912295	 1.763737	 -0.513987
C	 1.552639	 3.972004	 0.520293
H	 0.323689	 2.275210	 1.026696
H	 0.516648	 2.512877	 -0.681331
C	 0.431050	 5.011977	 0.539142
H	 2.085946	 4.003386	 1.469290
H	 2.278642	 4.242306	 -0.245042
C	 0.937681	 6.431236	 0.792681
H	 -0.293742	 4.744790	 1.304928
H	 -0.102072	 4.982454	 -0.408511
H	 1.446033	 6.501203	 1.750228
H	 0.119790	 7.144994	 0.799965
H	 1.639635	 6.740596	 0.023351
C	 4.024888	 -0.184556	 -0.001949
H	 4.179030	 0.422472	 -0.882452
H	 4.701782	 -1.024608	 -0.003642
H	 4.181981	 0.421185	 0.878906

1 2 4 20 F
