%nprocshared=4
%mem=2GB
#HF/cc-pVTZ nosymm scf=tight opt=ModRedundant

Mol

0 1
O	 -2.374409	 1.338660	 -0.336961
C	 -2.104891	 0.204655	 -0.107126
C	 -0.881910	 -0.448129	 -0.720509
C	 -2.949910	 -0.638219	 0.818225
C	 -0.465844	 -1.693008	 0.073222
H	 -0.079452	 0.278429	 -0.703593
H	 -1.077049	 -0.717257	 -1.753154
C	 0.774185	 -2.365848	 -0.511688
H	 -0.288700	 -1.397727	 1.099700
H	 -1.285017	 -2.407836	 0.089813
C	 1.200869	 -3.647330	 0.206401
H	 1.600122	 -1.658910	 -0.504966
H	 0.584009	 -2.601389	 -1.555219
C	 1.687367	 -3.443365	 1.639090
H	 1.996033	 -4.111331	 -0.368685
H	 0.374179	 -4.352951	 0.202444
H	 2.510729	 -2.737338	 1.673586
H	 2.037091	 -4.378231	 2.061571
H	 0.903363	 -3.068077	 2.285446
H	 -3.440322	 -1.417144	 0.243099
H	 -3.694377	 -0.025850	 1.303346
H	 -2.331085	 -1.129829	 1.560495

6 3 2 1 F
