%nprocshared=4
%mem=2GB
#HF/cc-pVTZ nosymm scf=tight opt=ModRedundant

Mol

0 1
H	 2.614283	 2.028610	 0.296620
O	 3.358864	 1.662087	 -0.142800
C	 3.565468	 0.338079	 0.273842
C	 2.533667	 -0.637565	 -0.272227
H	 4.548038	 0.064914	 -0.086598
H	 3.593945	 0.282242	 1.360360
C	 2.126614	 -1.734425	 0.709128
H	 1.655842	 -0.076454	 -0.578389
H	 2.946273	 -1.092707	 -1.169445
C	 1.114952	 -2.713431	 0.115055
H	 1.708856	 -1.280278	 1.601446
H	 3.012591	 -2.283825	 1.022960
C	 0.727219	 -3.876627	 1.029873
H	 0.218697	 -2.169457	 -0.173123
H	 1.528266	 -3.121892	 -0.802986
C	 -0.061924	 -3.482908	 2.277263
H	 0.133173	 -4.580333	 0.453301
H	 1.625226	 -4.413631	 1.327134
C	 -0.510337	 -4.684982	 3.104520
H	 -0.936014	 -2.907123	 1.980773
H	 0.534581	 -2.828542	 2.905744
C	 -1.295286	 -4.295283	 4.352672
H	 -1.119179	 -5.338895	 2.486227
H	 0.361143	 -5.265975	 3.394402
H	 -2.190908	 -3.740023	 4.094242
H	 -1.600146	 -5.170735	 4.914589
H	 -0.699912	 -3.671151	 5.010959

8 4 3 2 F
