%nprocshared=1
%mem=2GB
#HF/6-31G* nosymm scf=tight 

Mol

0 1
H	 -1.523071	 -0.237770	 -0.001739
N	 -0.626943	 -0.667432	 -0.000092
C	 -0.561099	 -2.111171	 0.000144
C	 0.469286	 0.129090	 0.000148
H	 -1.045956	 -2.521975	 0.879439
H	 0.476998	 -2.401094	 0.005321
H	 -1.037115	 -2.522330	 -0.883817
C	 1.788933	 -0.616240	 -0.000037
O	 0.411098	 1.327768	 -0.000049
H	 1.872803	 -1.245775	 -0.880381
H	 2.595421	 0.101576	 0.003713
H	 1.870096	 -1.252171	 0.875943

4 2 3 5 F
