%nprocshared=1
%mem=2GB
#HF/6-31G* nosymm scf=tight opt=ModRedundant

Mol

0 1
H	 -2.172150	 0.880146	 0.502514
C	 -2.018062	 -0.000025	 -0.114509
O	 -0.774054	 0.001095	 -0.743181
H	 -2.760490	 0.003458	 -0.901350
H	 -2.173624	 -0.884374	 0.496163
C	 -0.132024	 1.231828	 -1.025362
C	 1.175059	 0.812187	 -1.694278
C	 -0.964477	 2.080483	 -1.991796
C	 0.165311	 2.008089	 0.261544
H	 0.968210	 0.239546	 -2.591343
H	 1.754453	 0.188447	 -1.022992
H	 1.771188	 1.677669	 -1.964894
H	 -1.230870	 1.498980	 -2.868105
H	 -0.396728	 2.946419	 -2.316477
H	 -1.877625	 2.445103	 -1.533791
H	 0.692915	 1.375949	 0.968004
H	 0.787096	 2.870671	 0.045052
H	 -0.738648	 2.371883	 0.738139

6 3 2 5 F
