%nprocshared=1
%mem=2GB
#HF/6-31G* nosymm scf=tight 

Mol

0 1
H	 1.299240	 6.620071	 -0.486216
C	 0.284349	 6.315667	 -0.722554
C	 0.137662	 4.795443	 -0.671798
H	 -0.379337	 6.794852	 -0.008941
H	 0.044389	 6.701999	 -1.709452
C	 -1.281464	 4.331335	 -1.007211
H	 0.409482	 4.442069	 0.317566
H	 0.838823	 4.343079	 -1.371392
C	 -1.454533	 2.812558	 -0.982143
H	 -1.983850	 4.777424	 -0.312011
H	 -1.547100	 4.689241	 -1.999371
C	 -1.411804	 2.199737	 0.409930
H	 -2.420277	 2.545713	 -1.408642
H	 -0.711484	 2.326287	 -1.610312
C	 -1.181045	 0.701995	 0.511084
O	 -1.571391	 2.862566	 1.390540
C	 -2.285934	 -0.139295	 -0.145128
H	 -1.105101	 0.463673	 1.565195
H	 -0.225370	 0.467087	 0.046123
C	 -3.651768	 0.085446	 0.506485
H	 -2.346596	 0.110469	 -1.202272
H	 -2.034737	 -1.195320	 -0.088721
C	 -4.759797	 -0.746382	 -0.137905
H	 -3.908762	 1.140117	 0.445781
H	 -3.588286	 -0.154158	 1.565709
H	 -4.868882	 -0.505166	 -1.191300
H	 -4.548009	 -1.809175	 -0.062213
H	 -5.715422	 -0.564821	 0.343442

10 6 3 2 F
16 12 15 17 F
