%nprocshared=4
%mem=2GB
#HF/cc-pVTZ nosymm scf=tight opt=ModRedundant

Mol

0 1
O	 2.868453	 1.353349	 -0.000734
C	 2.841259	 0.166180	 -0.000295
C	 1.542794	 -0.614730	 -0.000853
C	 4.113372	 -0.651103	 0.000743
C	 0.288398	 0.247429	 0.000314
H	 1.557171	 -1.273139	 -0.866508
H	 1.557484	 -1.274998	 0.863344
C	 -0.993089	 -0.581367	 -0.000217
H	 0.305153	 0.900562	 -0.864701
H	 0.305567	 0.898805	 0.866656
C	 -2.258482	 0.271340	 0.000669
H	 -1.002280	 -1.233920	 -0.870484
H	 -1.002061	 -1.235367	 0.868958
C	 -2.057128	 1.656225	 0.609179
H	 -3.041197	 -0.249526	 0.546718
H	 -2.619948	 0.377281	 -1.019256
C	 -3.325955	 2.502311	 0.606584
H	 -1.696949	 1.551299	 1.629081
H	 -1.275802	 2.178085	 0.063184
H	 -4.116709	 2.023334	 1.174325
H	 -3.148904	 3.477820	 1.044828
H	 -3.692298	 2.654970	 -0.403135
H	 4.145311	 -1.294584	 -0.871587
H	 4.970080	 0.004978	 -0.000091
H	 4.145223	 -1.291980	 0.874988

15 11 8 12 F
