%nprocshared=4
%mem=2GB
#HF/cc-pVTZ nosymm scf=tight opt=ModRedundant

Mol

0 1
H	 2.614283	 2.028610	 0.296620
O	 3.358864	 1.662087	 -0.142800
C	 3.565468	 0.338079	 0.273842
C	 2.533667	 -0.637565	 -0.272227
H	 4.548038	 0.064914	 -0.086598
H	 3.593945	 0.282242	 1.360360
C	 3.003406	 -2.090008	 -0.312265
H	 1.633189	 -0.560797	 0.329774
H	 2.269880	 -0.317041	 -1.277253
C	 1.954117	 -3.034716	 -0.896523
H	 3.260207	 -2.411643	 0.691531
H	 3.913933	 -2.157828	 -0.905246
C	 2.399104	 -4.492340	 -1.029090
H	 1.053963	 -2.988270	 -0.288417
H	 1.672389	 -2.671045	 -1.880821
C	 2.630858	 -5.220493	 0.293720
H	 1.640803	 -5.030433	 -1.591196
H	 3.306036	 -4.537232	 -1.627934
C	 2.975896	 -6.696256	 0.110740
H	 1.738286	 -5.135965	 0.909868
H	 3.430707	 -4.740428	 0.849402
C	 3.211602	 -7.425388	 1.429338
H	 2.173897	 -7.187329	 -0.433524
H	 3.862575	 -6.782716	 -0.511665
H	 2.330998	 -7.384694	 2.061887
H	 3.451273	 -8.469539	 1.263766
H	 4.033629	 -6.981332	 1.981095

8 4 3 2 F
