%nprocshared=4
%mem=2GB
#HF/cc-pVTZ nosymm scf=tight opt=ModRedundant

Mol

0 1
H	 -1.835082	 1.385983	 0.000069
C	 -1.300516	 0.441153	 -0.000028
O	 -0.006604	 0.654344	 -0.000106
O	 -1.828920	 -0.612308	 0.000113
C	 0.489982	 1.715522	 0.810528
C	 1.990150	 1.760742	 0.642734
H	 0.208618	 1.531473	 1.837620
H	 0.025428	 2.640107	 0.498606
H	 2.441301	 0.827542	 0.955098
H	 2.400468	 2.559974	 1.248308
H	 2.257195	 1.941723	 -0.390659

5 3 2 4 F
