%nprocshared=4
%mem=2GB
#HF/cc-pVTZ nosymm scf=tight opt=ModRedundant

Mol

0 1
O	 -4.741559	 3.677983	 3.374923
C	 -3.562142	 3.759984	 3.486103
C	 -2.630085	 2.634875	 3.084568
C	 -2.907686	 5.004973	 4.041002
C	 -2.930863	 2.021940	 1.724174
H	 -1.614819	 3.023858	 3.116108
H	 -2.673335	 1.879345	 3.865793
C	 -3.884397	 2.876394	 0.893636
H	 -3.350542	 1.032427	 1.865059
H	 -2.001086	 1.878039	 1.185713
C	 -4.194457	 2.272685	 -0.473012
H	 -4.813692	 3.018553	 1.440882
H	 -3.457913	 3.867858	 0.758090
C	 -4.719592	 0.841738	 -0.399804
H	 -3.296827	 2.293932	 -1.086137
H	 -4.924370	 2.896509	 -0.983108
C	 -3.635106	 -0.178598	 -0.070268
H	 -5.505521	 0.785604	 0.348597
H	 -5.183101	 0.580541	 -1.347356
H	 -3.175337	 0.035142	 0.888882
H	 -4.040633	 -1.182884	 -0.025787
H	 -2.850683	 -0.171623	 -0.819719
H	 -2.221465	 5.423139	 3.312795
H	 -3.662109	 5.735040	 4.290482
H	 -2.329392	 4.760820	 4.925313

9 5 3 6 F
