%nprocshared=1
%mem=2GB
#HF/6-31G* nosymm scf=tight 

Mol

0 1
H	 0.304885	 2.398002	 6.600881
C	 -0.221391	 1.493958	 6.310603
C	 -0.691338	 1.570484	 4.858546
H	 0.454077	 0.656405	 6.457542
H	 -1.059860	 1.366622	 6.989980
C	 -1.444103	 0.312946	 4.418366
H	 0.166563	 1.723516	 4.211871
H	 -1.337494	 2.438201	 4.735085
C	 -1.942804	 0.367826	 2.974222
H	 -0.804272	 -0.554291	 4.537359
H	 -2.301857	 0.165727	 5.070767
C	 -0.843125	 0.269395	 1.927198
H	 -2.622670	 -0.462267	 2.788484
H	 -2.525098	 1.269546	 2.798122
C	 -1.181045	 0.701995	 0.511084
O	 0.242433	 -0.148910	 2.197368
C	 -2.285934	 -0.139295	 -0.145128
H	 -0.267077	 0.636096	 -0.066872
H	 -1.487948	 1.746047	 0.532294
C	 -3.651768	 0.085446	 0.506485
H	 -2.346596	 0.110469	 -1.202272
H	 -2.034737	 -1.195320	 -0.088721
C	 -4.759797	 -0.746382	 -0.137905
H	 -3.908762	 1.140117	 0.445781
H	 -3.588286	 -0.154158	 1.565709
H	 -4.868882	 -0.505166	 -1.191300
H	 -4.548009	 -1.809175	 -0.062213
H	 -5.715422	 -0.564821	 0.343442

10 6 3 2 F
16 12 15 17 F
