%nprocshared=4
%mem=2GB
#HF/cc-pVTZ nosymm scf=tight opt=ModRedundant

Mol

0 1
O	 -2.071633	 -1.227563	 -0.223463
C	 -1.652164	 -0.152425	 0.058082
C	 -0.327811	 0.006324	 0.778296
C	 -2.402515	 1.108629	 -0.298924
C	 0.844976	 -0.377540	 -0.132004
H	 -0.207302	 1.028318	 1.121996
H	 -0.345176	 -0.644477	 1.643162
C	 2.197104	 -0.248369	 0.563190
H	 0.839685	 0.246861	 -1.021829
H	 0.703164	 -1.398712	 -0.468845
C	 3.365586	 -0.641142	 -0.334330
H	 2.331031	 0.774673	 0.903739
H	 2.200664	 -0.870053	 1.453715
H	 3.409593	 -0.013136	 -1.217907
H	 3.275573	 -1.670143	 -0.665121
H	 4.309903	 -0.542840	 0.188167
H	 -3.240910	 0.874416	 -0.936711
H	 -1.747554	 1.818823	 -0.790984
H	 -2.760419	 1.579708	 0.610998

5 3 2 4 F
