%nprocshared=1
%mem=2GB
#HF/6-31G* nosymm scf=tight opt=ModRedundant

Mol

0 1
H	 -3.420663	 1.227371	 -1.044276
O	 -3.452007	 0.283848	 -0.965577
C	 -3.181085	 -0.079926	 0.364119
C	 -1.765924	 0.277073	 0.805136
H	 -3.327791	 -1.152017	 0.410903
H	 -3.905698	 0.375695	 1.036898
C	 -1.651131	 0.584005	 2.298834
H	 -1.096059	 -0.543357	 0.546028
H	 -1.432559	 1.135179	 0.223979
C	 -0.223245	 0.918889	 2.734924
H	 -2.018072	 -0.265528	 2.866600
H	 -2.307195	 1.418635	 2.540425
C	 -0.117311	 1.230736	 4.230121
H	 0.428280	 0.085817	 2.482088
H	 0.138605	 1.773477	 2.164531
C	 1.278079	 1.658815	 4.698941
H	 -0.436444	 0.361011	 4.802334
H	 -0.820602	 2.025398	 4.470353
C	 2.346234	 0.568608	 4.594545
H	 1.209315	 1.980519	 5.735314
H	 1.596035	 2.531377	 4.131717
H	 2.049485	 -0.321831	 5.142447
H	 3.289071	 0.911703	 5.009494
H	 2.531097	 0.277784	 3.565755

7 4 3 2 F
