%nprocshared=4
%mem=2GB
#HF/cc-pVTZ nosymm scf=tight opt=ModRedundant

Mol

0 1
O	 0.008362	 0.483942	 -1.885090
C	 0.159077	 -0.285791	 -0.998161
C	 1.328314	 -1.226968	 -0.853484
O	 -0.695554	 -0.422406	 0.000602
C	 2.342756	 -1.108491	 -1.979469
H	 0.925436	 -2.231699	 -0.789007
H	 1.783261	 -1.027814	 0.110516
H	 1.888488	 -1.324082	 -2.937268
H	 3.156386	 -1.805997	 -1.821862
H	 2.754121	 -0.109244	 -2.029587
C	 -1.852370	 0.402254	 0.000718
C	 -3.063338	 -0.501097	 -0.000437
H	 -1.831732	 1.039442	 -0.872158
H	 -1.832493	 1.038301	 0.874430
H	 -3.071944	 -1.133732	 -0.879113
H	 -3.966302	 0.097976	 -0.000483
H	 -3.072764	 -1.134834	 0.877435

2 4 11 13 F
