%nprocshared=1
%mem=2GB
#HF/6-31G* nosymm scf=tight 

Mol

0 1
H	 -0.509752	 4.157325	 2.001880
O	 0.171264	 3.558965	 1.729691
C	 -0.406965	 2.375242	 1.242822
C	 0.711784	 1.441435	 0.816027
H	 -1.015180	 1.901381	 2.012132
H	 -1.058884	 2.587232	 0.396417
C	 0.198102	 0.111031	 0.262842
H	 1.356772	 1.266644	 1.672862
H	 1.315535	 1.950022	 0.069501
C	 1.331804	 -0.827780	 -0.158768
H	 -0.422881	 -0.372110	 1.013260
H	 -0.446755	 0.298576	 -0.594773
C	 2.723619	 -0.410569	 0.329459
H	 1.342964	 -0.912588	 -1.244120
H	 1.116806	 -1.824343	 0.220779
C	 3.243875	 0.895854	 -0.272975
H	 3.424222	 -1.207124	 0.091250
H	 2.714788	 -0.329854	 1.414619
H	 3.251977	 0.848779	 -1.358681
H	 2.637085	 1.747371	 0.016682
H	 4.259473	 1.094070	 0.055697

2 3 4 8 F
8 4 7 10 F
16 13 10 14 F
1 2 3 5 F
