%nprocshared=4
%mem=2GB
#HF/cc-pVTZ nosymm scf=tight opt=ModRedundant

Mol

0 1
H	 2.614283	 2.028610	 0.296620
O	 3.358864	 1.662087	 -0.142800
C	 3.565468	 0.338079	 0.273842
C	 2.533667	 -0.637565	 -0.272227
H	 4.548038	 0.064914	 -0.086598
H	 3.593945	 0.282242	 1.360360
C	 1.085288	 -0.228142	 -0.014506
H	 2.697158	 -0.751621	 -1.339663
H	 2.719102	 -1.608379	 0.181131
C	 0.079179	 -1.247243	 -0.547436
H	 0.898642	 0.737420	 -0.472607
H	 0.931792	 -0.101684	 1.055884
C	 -1.386502	 -0.924071	 -0.251475
H	 0.213433	 -1.353410	 -1.621183
H	 0.310281	 -2.217721	 -0.117049
C	 -1.933199	 0.310954	 -0.965323
H	 -1.988954	 -1.782330	 -0.536029
H	 -1.518031	 -0.806653	 0.821869
C	 -3.422815	 0.533992	 -0.716907
H	 -1.760190	 0.212004	 -2.034783
H	 -1.389436	 1.196262	 -0.649802
C	 -3.971077	 1.768375	 -1.425145
H	 -3.975947	 -0.342812	 -1.042232
H	 -3.598529	 0.624600	 0.351726
H	 -3.839409	 1.693919	 -2.499556
H	 -5.029817	 1.895614	 -1.230245
H	 -3.463694	 2.668237	 -1.093240

8 4 3 2 F
