%nprocshared=4
%mem=2GB
#HF/cc-pVTZ nosymm scf=tight opt=ModRedundant

Mol

0 1
H	 2.851051	 -3.399616	 2.361536
O	 3.593132	 -3.306667	 1.793640
C	 3.242469	 -3.643520	 0.477267
C	 2.363066	 -2.603720	 -0.201078
H	 4.175288	 -3.736084	 -0.062418
H	 2.757268	 -4.617353	 0.451195
C	 0.978834	 -2.448429	 0.424731
H	 2.881095	 -1.649501	 -0.184627
H	 2.255901	 -2.886873	 -1.245462
C	 0.113298	 -1.420414	 -0.302504
H	 1.085933	 -2.159440	 1.464932
H	 0.470514	 -3.411160	 0.418063
C	 -1.311023	 -1.277304	 0.237018
H	 0.607441	 -0.452362	 -0.272089
H	 0.056668	 -1.697442	 -1.351559
C	 -2.041121	 -0.006551	 -0.194127
H	 -1.888548	 -2.136293	 -0.093331
H	 -1.289731	 -1.328757	 1.323321
C	 -3.489218	 0.042606	 0.286507
H	 -2.022185	 0.066287	 -1.279394
H	 -1.518764	 0.869305	 0.178730
C	 -4.219984	 1.311773	 -0.139038
H	 -4.022855	 -0.824300	 -0.093339
H	 -3.510372	 -0.038577	 1.370031
H	 -4.244251	 1.405725	 -1.219696
H	 -5.244345	 1.313233	 0.215630
H	 -3.732090	 2.196311	 0.257073

14 10 13 16 F
