%nprocshared=4
%mem=2GB
#HF/cc-pVTZ nosymm scf=tight opt=ModRedundant

Mol

0 1
H	 2.614283	 2.028610	 0.296620
O	 3.358864	 1.662087	 -0.142800
C	 3.565468	 0.338079	 0.273842
C	 2.310491	 -0.519811	 0.212641
H	 4.314186	 -0.067962	 -0.392890
H	 3.983481	 0.317258	 1.278472
C	 1.210204	 -0.091655	 1.181092
H	 1.929779	 -0.502868	 -0.804182
H	 2.597224	 -1.546906	 0.425383
C	 -0.020206	 -0.995272	 1.114717
H	 0.919638	 0.930886	 0.964335
H	 1.602234	 -0.097065	 2.196754
C	 -1.125453	 -0.656819	 2.116782
H	 -0.428692	 -0.968590	 0.107417
H	 0.295356	 -2.020846	 1.285273
C	 -1.827065	 0.679161	 1.878790
H	 -1.869283	 -1.448127	 2.083976
H	 -0.713711	 -0.672404	 3.123450
C	 -2.985559	 0.925354	 2.841957
H	 -2.199009	 0.710971	 0.856971
H	 -1.116969	 1.495565	 1.969624
C	 -3.685905	 2.260041	 2.609537
H	 -3.707720	 0.118986	 2.747975
H	 -2.617167	 0.885485	 3.863603
H	 -4.093939	 2.318336	 1.605871
H	 -4.503481	 2.401676	 3.307115
H	 -2.998280	 3.090167	 2.733696

4 3 2 1 F
