%nprocshared=4
%mem=2GB
#HF/cc-pVTZ nosymm scf=tight opt=ModRedundant

Mol

0 1
H	 -0.366580	 2.045936	 -0.305741
C	 0.351829	 1.335402	 0.083179
N	 -0.000018	 0.000080	 -0.334836
H	 1.327156	 1.599860	 -0.305475
H	 0.380566	 1.445403	 1.171445
C	 0.417225	 -0.993471	 0.624926
C	 -1.402550	 -0.113738	 -0.654508
H	 0.200924	 -1.985124	 0.248190
H	 1.485202	 -0.923957	 0.788576
H	 -0.080844	 -0.883547	 1.592869
H	 -1.665003	 0.598759	 -1.426291
H	 -1.616983	 -1.106415	 -1.029657
H	 -2.050364	 0.068890	 0.208101

6 3 2 1 F
