%nprocshared=4
%mem=2GB
#HF/cc-pVTZ nosymm scf=tight opt=ModRedundant

Mol

0 1
H	 2.785797	 -2.462822	 -3.740175
C	 2.395419	 -2.391660	 -2.731885
C	 1.154048	 -1.507641	 -2.685388
H	 2.172401	 -3.397922	 -2.393156
H	 3.184521	 -1.998271	 -2.099762
C	 0.572289	 -1.379255	 -1.285373
H	 0.389198	 -1.903897	 -3.343985
H	 1.402887	 -0.517892	 -3.060956
N	 -0.616576	 -0.554459	 -1.278574
H	 0.300312	 -2.364501	 -0.918644
H	 1.341888	 -0.999570	 -0.606668
C	 -1.215959	 -0.382435	 0.027143
H	 -0.409416	 0.338613	 -1.674588
C	 -2.451944	 0.502410	 -0.038737
H	 -1.496651	 -1.362828	 0.400265
H	 -0.511067	 0.033309	 0.753339
C	 -3.752217	 -0.292550	 0.005776
H	 -2.407325	 1.093801	 -0.946480
H	 -2.431979	 1.206234	 0.790023
H	 -3.817783	 -0.982946	 -0.828547
H	 -4.612613	 0.364348	 -0.042306
H	 -3.830160	 -0.871666	 0.919868

15 12 14 18 F
