%nprocshared=4
%mem=2GB
#HF/cc-pVTZ nosymm scf=tight opt=ModRedundant

Mol

0 1
O	 -2.081319	 -0.951530	 -0.502732
N	 -1.613558	 0.006676	 0.014756
C	 -0.329345	 -0.171618	 0.743966
O	 -2.068523	 1.100482	 -0.024385
C	 0.835904	 0.041968	 -0.213982
H	 -0.346048	 -1.174374	 1.137184
H	 -0.333613	 0.555559	 1.538590
C	 2.177039	 -0.130175	 0.494460
H	 0.754456	 -0.665923	 -1.030569
H	 0.765464	 1.037260	 -0.637266
C	 3.023327	 1.137362	 0.454135
H	 2.726218	 -0.946323	 0.034306
H	 2.005250	 -0.417341	 1.527625
H	 3.239715	 1.430396	 -0.567141
H	 2.512357	 1.963866	 0.935297
H	 3.967388	 0.988875	 0.963902

11 8 5 9 F
