%nprocshared=4
%mem=2GB
#HF/cc-pVTZ nosymm scf=tight opt=ModRedundant

Mol

0 1
O	 0.116640	 -0.423839	 0.299333
C	 1.121787	 0.124983	 0.000110
C	 1.607796	 1.433130	 0.569329
O	 1.969101	 -0.353489	 -0.896273
C	 1.517877	 1.513095	 2.086381
H	 2.628537	 1.571792	 0.228241
H	 1.029748	 2.221993	 0.099205
C	 2.210108	 0.338971	 2.772354
H	 0.475325	 1.548405	 2.381981
H	 1.956959	 2.445692	 2.422556
C	 2.124081	 0.407929	 4.293122
H	 1.768122	 -0.592705	 2.429033
H	 3.254249	 0.308667	 2.472210
H	 1.091867	 0.404846	 4.626453
H	 2.623217	 -0.437201	 4.752790
H	 2.588869	 1.312661	 4.669968
C	 3.226978	 0.281687	 -1.004047
H	 3.107866	 1.319775	 -1.276836
H	 3.762124	 -0.246898	 -1.776112
H	 3.765395	 0.222432	 -0.069799

1 2 4 17 F
