%nprocshared=1
%mem=2GB
#HF/6-31G* nosymm scf=tight 

Mol

0 1
H	 -0.920893	 -1.066790	 0.861165
N	 -0.626943	 -0.667432	 -0.000092
C	 -1.393187	 -0.965635	 -1.188646
C	 0.469286	 0.129090	 0.000148
H	 -1.401467	 -2.032014	 -1.388078
H	 -0.934831	 -0.457425	 -2.021330
H	 -2.417430	 -0.622583	 -1.087291
C	 1.788933	 -0.616240	 -0.000037
O	 0.411098	 1.327768	 -0.000049
H	 1.872803	 -1.245775	 -0.880381
H	 2.595421	 0.101576	 0.003713
H	 1.870096	 -1.252171	 0.875943

4 2 3 5 F
