%nprocshared=4
%mem=2GB
#HF/cc-pVTZ nosymm scf=tight opt=ModRedundant

Mol

0 1
H	 -0.939693	 0.000281	 1.681345
O	 -0.046262	 -0.000157	 1.387678
C	 -0.000837	 0.000006	 -0.025491
C	 -0.908523	 1.103150	 -0.566164
C	 1.439196	 0.207233	 -0.490795
C	 -0.510771	 -1.371598	 -0.446035
H	 -0.922412	 1.104705	 -1.649953
H	 -0.564976	 2.079563	 -0.238043
H	 -1.921152	 0.964647	 -0.208586
H	 1.511251	 0.175929	 -1.571820
H	 1.815052	 1.171341	 -0.161705
H	 2.080603	 -0.562428	 -0.080083
H	 -0.513186	 -1.468824	 -1.525307
H	 -1.519463	 -1.523666	 -0.083230
H	 0.118306	 -2.148695	 -0.030587

4 3 2 1 F
