%nprocshared=1
%mem=2GB
#HF/6-31G* nosymm scf=tight 

Mol

0 1
O	 0.216491	 0.013008	 -0.762521
C	 1.122059	 0.121804	 -0.000188
C	 1.241602	 1.171918	 1.077246
O	 2.172624	 -0.688929	 0.000216
C	 0.057845	 2.133248	 1.120896
H	 1.362481	 0.653043	 2.024301
H	 2.174543	 1.703489	 0.910493
C	 0.204389	 3.186398	 2.220336
H	 -0.857006	 1.568606	 1.271666
H	 -0.044077	 2.620231	 0.156032
C	 -0.976773	 4.154572	 2.270318
H	 0.306953	 2.693104	 3.184815
H	 1.123863	 3.747472	 2.065953
H	 -1.907554	 3.627190	 2.457853
H	 -0.848180	 4.890305	 3.057996
H	 -1.084423	 4.689526	 1.331236
C	 3.452279	 -0.082609	 0.000533
H	 3.583069	 0.529321	 -0.880332
H	 4.163299	 -0.894027	 0.001117
H	 3.582335	 0.529955	 0.881077

9 5 8 12 F
1 2 3 6 F
9 5 3 6 F
