%nprocshared=4
%mem=2GB
#HF/cc-pVTZ nosymm scf=tight opt=ModRedundant

Mol

0 1
O	 -0.988175	 -1.402891	 0.050086
C	 -0.675048	 -0.248293	 -0.009686
C	 -1.742492	 0.826599	 -0.011538
N	 0.622280	 0.144970	 -0.099307
H	 -1.692153	 1.431066	 -0.908439
H	 -2.698310	 0.331559	 0.031353
H	 -1.642148	 1.483784	 0.843455
C	 1.356450	 0.415661	 1.118752
C	 1.234202	 0.636500	 -1.310796
H	 2.374945	 0.062637	 1.012612
H	 0.887729	 -0.090173	 1.943138
H	 1.385287	 1.480755	 1.334102
H	 2.280524	 0.359400	 -1.318632
H	 0.778478	 0.211035	 -2.188401
H	 1.176349	 1.720161	 -1.384112

8 4 2 3 F
