%nprocshared=4
%mem=2GB
#HF/cc-pVTZ nosymm scf=tight opt=ModRedundant

Mol

0 1
O	 0.541902	 0.545780	 -0.958386
C	 0.029490	 0.077183	 0.000078
C	 -1.232113	 -0.748027	 0.000015
O	 0.510371	 0.221619	 1.223648
C	 -2.501422	 0.088592	 -0.000052
H	 -1.188777	 -1.400384	 -0.865133
H	 -1.188857	 -1.400312	 0.865225
H	 -2.548170	 0.725504	 -0.873205
H	 -3.371613	 -0.556398	 -0.000040
H	 -2.548215	 0.725571	 0.873047
C	 1.696146	 0.976732	 1.369887
H	 2.506240	 0.525296	 0.816545
H	 1.920565	 0.977581	 2.424146
H	 1.549976	 1.987540	 1.018964

4 2 3 6 F
