%nprocshared=4
%mem=2GB
#HF/6-31G* nosymm scf=tight opt=ModRedundant

Mol

0 1
O	 1.214711	 1.306902	 -0.000018
C	 1.122059	 0.121804	 -0.000188
C	 -0.170150	 -0.657997	 -0.000612
O	 2.172624	 -0.688929	 0.000216
C	 -1.412532	 0.227344	 -0.000452
H	 -0.153702	 -1.313099	 -0.867402
H	 -0.153924	 -1.313811	 0.865644
C	 -1.152502	 1.593934	 0.635302
H	 -2.213270	 -0.278872	 0.529706
H	 -1.760809	 0.356284	 -1.020541
C	 -2.391763	 2.487928	 0.638471
H	 -0.803025	 1.458946	 1.656928
H	 -0.347639	 2.095704	 0.101921
H	 -3.204287	 2.028738	 1.193993
H	 -2.180556	 3.450008	 1.094618
H	 -2.745269	 2.670546	 -0.372135
C	 3.452279	 -0.082609	 0.000533
H	 3.583069	 0.529321	 -0.880332
H	 4.163299	 -0.894027	 0.001117
H	 3.582335	 0.529955	 0.881077

9 5 3 6 F
