%nprocshared=4
%mem=2GB
#HF/6-31G* nosymm scf=tight opt=ModRedundant

Mol

0 1
H	 -3.161908	 -0.840114	 1.446659
C	 -3.253309	 -0.606228	 0.378687
C	 -2.711288	 0.740590	 -0.027398
O	 -3.751208	 -1.389040	 -0.363643
C	 -1.269737	 0.963412	 0.450657
H	 -2.792622	 0.831518	 -1.104350
H	 -3.357773	 1.493980	 0.421061
C	 -0.252658	 0.041456	 -0.226725
H	 -1.000710	 1.998319	 0.261249
H	 -1.222766	 0.831401	 1.530529
C	 1.180775	 0.282413	 0.250794
H	 -0.305388	 0.183963	 -1.304110
H	 -0.520207	 -0.998174	 -0.047488
C	 2.148627	 -0.814315	 -0.201312
H	 1.516199	 1.249228	 -0.115937
H	 1.192670	 0.346017	 1.338083
C	 3.580890	 -0.659131	 0.322722
H	 2.166869	 -0.852443	 -1.289387
H	 1.762857	 -1.776509	 0.128956
C	 4.324889	 0.564933	 -0.213704
H	 4.142010	 -1.551473	 0.056605
H	 3.564836	 -0.624694	 1.410140
H	 4.342616	 0.565491	 -1.300421
H	 3.866655	 1.493402	 0.110242
H	 5.353900	 0.572371	 0.132816

12 8 11 14 F
