%nprocshared=4
%mem=2GB
#HF/cc-pVTZ nosymm scf=tight opt=ModRedundant

Mol

0 1
O	 0.623971	 1.347241	 -0.000777
C	 0.485107	 0.171416	 -0.000134
C	 1.606966	 -0.836201	 0.000174
O	 -0.695554	 -0.422406	 0.000602
C	 2.988788	 -0.202529	 -0.000115
H	 1.465110	 -1.474645	 -0.864821
H	 1.465209	 -1.474077	 0.865596
H	 3.131767	 0.419673	 -0.873407
H	 3.750876	 -0.972315	 0.000098
H	 3.131883	 0.420264	 0.872742
C	 -0.757381	 -1.775380	 -0.428265
C	 -2.197143	 -2.223716	 -0.335712
H	 -0.113902	 -2.374688	 0.200314
H	 -0.385178	 -1.842179	 -1.440849
H	 -2.559066	 -2.151521	 0.682214
H	 -2.280119	 -3.255374	 -0.656692
H	 -2.831887	 -1.616043	 -0.968330

11 4 2 3 F
