%nprocshared=4
%mem=2GB
#HF/cc-pVTZ nosymm scf=tight opt=ModRedundant

Mol

0 1
H	 2.472312	 -1.816708	 1.542115
C	 1.917146	 -1.448241	 0.686073
C	 0.803423	 -0.515885	 1.143059
H	 1.502283	 -2.295655	 0.154378
H	 2.621321	 -0.954727	 0.027807
N	 0.000297	 0.000045	 0.046090
H	 0.156151	 -1.069312	 1.809297
H	 1.222898	 0.300214	 1.737999
C	 -1.359159	 0.315706	 0.454404
C	 0.644798	 1.108229	 -0.640255
C	 -2.416729	 -0.286720	 -0.460525
H	 -1.478729	 1.390261	 0.442008
H	 -1.539692	 0.003361	 1.486761
C	 0.233389	 1.231293	 -2.101089
H	 1.714688	 0.955945	 -0.605528
H	 0.456802	 2.052040	 -0.120841
H	 -2.285276	 0.073129	 -1.473515
H	 -2.371743	 -1.368476	 -0.483209
H	 -3.408658	 -0.007405	 -0.121593
H	 0.480351	 0.323730	 -2.637976
H	 -0.829227	 1.406480	 -2.214813
H	 0.753678	 2.060585	 -2.568408

3 6 9 11 F
