%nprocshared=1
%mem=2GB
#HF/6-31G* nosymm scf=tight 

Mol

0 1
H	 -2.172150	 0.880146	 0.502514
C	 -2.018062	 -0.000025	 -0.114509
O	 -0.774054	 0.001095	 -0.743181
H	 -2.760490	 0.003458	 -0.901350
H	 -2.173624	 -0.884374	 0.496163
C	 0.367737	 -0.454540	 -0.039446
C	 1.500572	 -0.302413	 -1.052142
C	 0.644432	 0.418225	 1.188931
C	 0.219392	 -1.925700	 0.361550
H	 1.590887	 0.733700	 -1.358319
H	 1.294676	 -0.897412	 -1.934727
H	 2.447597	 -0.623419	 -0.630525
H	 0.676496	 1.465131	 0.906106
H	 1.600184	 0.154434	 1.630013
H	 -0.111608	 0.295321	 1.956950
H	 -0.046699	 -2.525442	 -0.502484
H	 1.154638	 -2.301983	 0.763123
H	 -0.540348	 -2.067807	 1.122623

2 3 6 7 F
