%nprocshared=4
%mem=2GB
#HF/cc-pVTZ nosymm scf=tight opt=ModRedundant

Mol

0 1
O	 -2.440701	 -0.934798	 -0.415053
C	 -1.922978	 0.063265	 -0.045005
C	 -2.632749	 1.372204	 0.158357
O	 -0.637375	 0.157174	 0.243149
H	 -2.187724	 2.129143	 -0.474664
H	 -3.677681	 1.257276	 -0.079438
H	 -2.516788	 1.693160	 1.185542
C	 0.162530	 -1.009518	 0.097799
C	 1.587210	 -0.664190	 0.477086
H	 0.096803	 -1.356267	 -0.924704
H	 -0.233803	 -1.785900	 0.736810
C	 1.720129	 0.590977	 1.335371
H	 2.144888	 -0.533885	 -0.446360
H	 2.029496	 -1.512095	 0.991165
C	 3.170062	 0.922031	 1.672586
H	 1.270649	 1.430218	 0.811214
H	 1.155426	 0.461635	 2.251464
H	 3.235757	 1.818320	 2.278172
H	 3.755410	 1.086679	 0.773892
H	 3.636877	 0.114316	 2.226387

12 9 8 10 F
