%nprocshared=1
%mem=2GB
#HF/6-31G* nosymm scf=tight opt=ModRedundant

Mol

0 1
O	 0.749854	 1.307668	 -0.000040
C	 0.576249	 0.131685	 -0.000108
C	 -0.766779	 -0.556801	 -0.000461
O	 1.568443	 -0.749345	 -0.000005
C	 -1.945214	 0.412366	 0.000161
H	 -0.796911	 -1.211249	 -0.867467
H	 -0.796854	 -1.212390	 0.865687
C	 -3.263564	 -0.287807	 0.326164
H	 -2.012223	 0.895114	 -0.968893
H	 -1.758292	 1.202694	 0.719200
H	 -3.489241	 -1.064400	 -0.399387
H	 -4.088004	 0.417654	 0.321048
H	 -3.232904	 -0.752422	 1.307829
C	 2.886820	 -0.232538	 0.000322
H	 3.059106	 0.369571	 -0.880203
H	 3.540187	 -1.091012	 0.000050
H	 3.059019	 0.368956	 0.881266

9 5 3 6 F
