%nprocshared=4
%mem=2GB
#HF/cc-pVTZ nosymm scf=tight opt=ModRedundant

Mol

0 1
O	 0.990454	 0.278465	 0.930667
C	 1.704209	 0.119472	 -0.000093
C	 1.595749	 0.839479	 -1.319739
O	 2.715427	 -0.733672	 0.000025
C	 0.447960	 1.837000	 -1.381844
H	 2.549130	 1.325600	 -1.499188
H	 1.500804	 0.082457	 -2.091325
C	 0.367807	 2.546552	 -2.730225
H	 0.565070	 2.566299	 -0.588319
H	 -0.484464	 1.321742	 -1.180882
C	 -0.778024	 3.550985	 -2.811797
H	 1.306855	 3.059186	 -2.926807
H	 0.253626	 1.809358	 -3.521897
C	 -0.857884	 4.260529	 -4.159232
H	 -0.664465	 4.288328	 -2.022121
H	 -1.716609	 3.039752	 -2.617224
H	 0.054262	 4.810024	 -4.367274
H	 -1.680701	 4.965605	 -4.183208
H	 -1.006599	 3.551617	 -4.967045
C	 4.020999	 -0.192556	 0.000019
H	 4.182809	 0.412891	 -0.879449
H	 4.692590	 -1.035653	 0.000152
H	 4.182726	 0.413087	 0.879368

1 2 4 20 F
