%nprocshared=4
%mem=2GB
#HF/cc-pVTZ nosymm scf=tight opt=ModRedundant

Mol

0 1
O	 0.644662	 1.542109	 -0.225270
C	 0.781622	 1.719742	 -1.387478
C	 1.142957	 0.661793	 -2.398330
O	 0.630629	 2.901797	 -1.962250
C	 0.335863	 -0.620984	 -2.259028
H	 1.015619	 1.101419	 -3.382181
H	 2.206135	 0.470330	 -2.296173
C	 -1.168138	 -0.364163	 -2.265442
H	 0.619678	 -1.123833	 -1.341495
H	 0.597429	 -1.296995	 -3.065181
C	 -1.676080	 0.254625	 -0.966378
H	 -1.420714	 0.291307	 -3.095992
H	 -1.694977	 -1.298563	 -2.445925
C	 -3.179156	 0.511780	 -0.972914
H	 -1.151234	 1.188443	 -0.785609
H	 -1.425794	 -0.399998	 -0.136326
H	 -3.456843	 1.191382	 -1.771829
H	 -3.506150	 0.950876	 -0.037497
H	 -3.733593	 -0.409670	 -1.117015
C	 1.774850	 3.725117	 -2.063383
H	 2.168391	 3.953019	 -1.083894
H	 1.449161	 4.628457	 -2.553025
H	 2.542901	 3.240436	 -2.647673

1 2 4 20 F
