%nprocshared=4
%mem=2GB
#HF/cc-pVTZ nosymm scf=tight 
prop=(read,field)

Mol

0 1
H	 2.867608	 -0.456266	 0.875795
C	 2.403433	 -0.020417	 0.000000
N	 0.989835	 -0.304555	 0.000000
H	 2.867608	 -0.456266	 -0.875795
H	 2.620302	 1.051279	 -0.000000
C	 0.326982	 0.185016	 -1.191014
C	 0.326982	 0.185016	 1.191014
H	 0.417417	 1.272003	 -1.280596
H	 0.792418	 -0.255915	 -2.064900
C	 -1.142169	 -0.190352	 -1.160412
H	 0.792418	 -0.255915	 2.064900
H	 0.417417	 1.272003	 1.280596
C	 -1.142169	 -0.190352	 1.160412
H	 -1.663534	 0.249235	 -1.999202
H	 -1.242357	 -1.272228	 -1.220460
O	 -1.759697	 0.282140	 0.000000
H	 -1.663534	 0.249235	 1.999202
H	 -1.242357	 -1.272228	 1.220460

@grid.dat /N
