%nprocshared=4
%mem=2GB
#HF/cc-pVTZ nosymm scf=tight opt=ModRedundant

Mol

0 1
O	 -0.016094	 -0.192708	 2.019704
C	 -0.124478	 0.426553	 1.000152
C	 -1.136797	 1.549058	 0.900019
N	 0.622280	 0.144970	 -0.099307
H	 -1.854829	 1.363572	 0.111114
H	 -1.651589	 1.603892	 1.844728
H	 -0.654974	 2.498254	 0.700400
C	 1.664396	 -0.854993	 0.000772
C	 0.688385	 0.990333	 -1.267531
H	 2.462727	 -0.615153	 -0.690869
H	 1.261798	 -1.821849	 -0.240651
H	 2.081615	 -0.891605	 1.003877
H	 0.837154	 0.373927	 -2.144769
H	 -0.223306	 1.544696	 -1.410348
H	 1.514698	 1.695450	 -1.212207

2 4 8 10 F
