%nprocshared=4
%mem=2GB
#HF/6-31G* nosymm scf=tight opt=ModRedundant

Mol

0 1
O	 0.303304	 0.125452	 -0.861970
C	 1.122059	 0.121804	 -0.000188
C	 1.118852	 1.012926	 1.217919
O	 2.172624	 -0.688929	 0.000216
C	 -0.069938	 1.967738	 1.267472
H	 1.142417	 0.367914	 2.092081
H	 2.060259	 1.555554	 1.225753
C	 -0.048654	 2.858644	 2.510533
H	 -0.991416	 1.394418	 1.241270
H	 -0.072527	 2.583473	 0.373399
C	 -1.235586	 3.819345	 2.567537
H	 -0.045337	 2.236707	 3.403427
H	 0.877832	 3.428892	 2.533176
H	 -2.177080	 3.277993	 2.580975
H	 -1.196728	 4.438849	 3.458033
H	 -1.246961	 4.479092	 1.704841
C	 3.452279	 -0.082609	 0.000533
H	 3.583069	 0.529321	 -0.880332
H	 4.163299	 -0.894027	 0.001117
H	 3.582335	 0.529955	 0.881077

1 2 4 17 F
