%nprocshared=4
%mem=2GB
#HF/cc-pVTZ nosymm scf=tight opt=ModRedundant

Mol

0 1
O	 -2.081319	 -0.951530	 -0.502732
N	 -1.613558	 0.006676	 0.014756
C	 -0.329345	 -0.171618	 0.743966
O	 -2.068523	 1.100482	 -0.024385
C	 0.835904	 0.041968	 -0.213982
H	 -0.346048	 -1.174374	 1.137184
H	 -0.333613	 0.555559	 1.538590
C	 1.088366	 1.527150	 -0.460283
H	 1.723080	 -0.420819	 0.202315
H	 0.617121	 -0.457096	 -1.150895
C	 2.246171	 1.768848	 -1.422338
H	 1.295108	 2.019822	 0.485217
H	 0.187240	 1.985553	 -0.856824
H	 3.168909	 1.350304	 -1.036238
H	 2.053737	 1.313801	 -2.387541
H	 2.403179	 2.828791	 -1.580550

9 5 3 2 F
