%nprocshared=4
%mem=2GB
#HF/cc-pVTZ nosymm scf=tight opt=ModRedundant

Mol

0 1
H	 -2.816458	 -0.841657	 -0.064679
N	 -1.878861	 -0.711874	 0.250184
C	 -1.341419	 0.551458	 -0.220231
H	 -1.333674	 -1.468530	 -0.105118
C	 0.082190	 0.731516	 0.254705
H	 -1.357065	 0.652078	 -1.304747
H	 -1.939897	 1.357530	 0.189797
O	 0.744158	 1.591327	 -0.622923
H	 0.086173	 1.148368	 1.260882
H	 0.582659	 -0.233691	 0.283586
C	 2.088774	 1.785927	 -0.334203
H	 2.492099	 2.465315	 -1.071188
H	 2.224452	 2.221592	 0.653462
H	 2.644163	 0.851983	 -0.377260

8 5 3 6 F
