%nprocshared=4
%mem=2GB
#HF/cc-pVTZ nosymm scf=tight opt=ModRedundant

Mol

0 1
O	 -2.374409	 1.338660	 -0.336961
C	 -2.104891	 0.204655	 -0.107126
C	 -0.881910	 -0.448129	 -0.720509
C	 -2.949910	 -0.638219	 0.818225
C	 -0.174971	 -1.355641	 0.294135
H	 -0.209961	 0.341822	 -1.031270
H	 -1.161816	 -1.022737	 -1.597061
C	 1.071528	 -2.017338	 -0.289734
H	 0.082364	 -0.760044	 1.160894
H	 -0.860877	 -2.126804	 0.636391
C	 1.785043	 -2.980073	 0.661026
H	 1.768288	 -1.246205	 -0.608888
H	 0.789741	 -2.562544	 -1.186367
C	 2.411598	 -2.318625	 1.886095
H	 2.564020	 -3.492621	 0.105332
H	 1.087689	 -3.749250	 0.982581
H	 3.109526	 -1.540706	 1.593986
H	 2.956826	 -3.045482	 2.477006
H	 1.666774	 -1.868707	 2.531146
H	 -3.440322	 -1.417144	 0.243099
H	 -3.694377	 -0.025850	 1.303346
H	 -2.331085	 -1.129829	 1.560495

6 3 2 1 F
