%nprocshared=4
%mem=2GB
#HF/cc-pVTZ nosymm scf=tight opt=ModRedundant

Mol

0 1
H	 -4.117271	 0.071068	 1.374278
O	 -3.401473	 -0.480687	 1.118554
C	 -2.245798	 0.289278	 0.918586
C	 -1.116326	 -0.633858	 0.508420
H	 -2.414457	 1.035064	 0.144551
H	 -1.978605	 0.818796	 1.830753
C	 0.196029	 0.106276	 0.266738
H	 -1.415377	 -1.164729	 -0.389892
H	 -0.985417	 -1.382291	 1.283423
C	 1.330220	 -0.826136	 -0.155230
H	 0.041260	 0.866975	 -0.492273
H	 0.487559	 0.632663	 1.173109
C	 2.719700	 -0.407669	 0.328325
H	 1.339388	 -0.911200	 -1.239363
H	 1.119001	 -1.821953	 0.224128
C	 3.241564	 0.893452	 -0.276737
H	 3.418299	 -1.204729	 0.093035
H	 2.711776	 -0.323368	 1.411960
H	 3.254204	 0.841071	 -1.360784
H	 2.634460	 1.745075	 0.005842
H	 4.254264	 1.092401	 0.054971

4 7 10 14 F
