%nprocshared=4
%mem=2GB
#HF/cc-pVTZ nosymm scf=tight opt=ModRedundant

Mol

0 1
O	 -0.988175	 -1.402891	 0.050086
C	 -0.675048	 -0.248293	 -0.009686
C	 -1.742492	 0.826599	 -0.011538
N	 0.622280	 0.144970	 -0.099307
H	 -1.692153	 1.431066	 -0.908439
H	 -2.698310	 0.331559	 0.031353
H	 -1.642148	 1.483784	 0.843455
C	 1.353933	 -0.131266	 -1.317636
C	 1.432296	 0.517795	 1.035871
H	 2.003517	 0.704784	 -1.546294
H	 0.663617	 -0.278661	 -2.128141
H	 1.967937	 -1.022519	 -1.216150
H	 2.145090	 1.273385	 0.731497
H	 0.837115	 0.933524	 1.830746
H	 1.991498	 -0.327441	 1.430730

8 4 2 3 F
