%nprocshared=1
%mem=2GB
#HF/6-31G* nosymm scf=tight 

Mol

0 1
H	 -2.181873	 0.271731	 2.562847
C	 -1.794065	 -0.672255	 2.940517
O	 -0.605228	 -1.023193	 2.308975
H	 -1.583967	 -0.567175	 3.995960
H	 -2.558656	 -1.436762	 2.808765
C	 -0.721695	 -1.201654	 0.932808
C	 0.644560	 -1.469825	 0.346602
H	 -1.377135	 -2.045882	 0.715156
H	 -1.146411	 -0.317181	 0.462353
O	 1.392611	 -0.295398	 0.366430
H	 1.135236	 -2.251079	 0.923565
H	 0.531216	 -1.828675	 -0.677152
C	 2.706965	 -0.449871	 -0.062409
H	 2.756559	 -0.644779	 -1.131878
H	 3.305899	 0.433456	 0.155466
H	 3.125548	 -1.294566	 0.467107

3 6 7 11 F
2 3 6 7 F
