%nprocshared=4
%mem=2GB
#HF/cc-pVTZ nosymm scf=tight opt=ModRedundant

Mol

0 1
H	 -3.941973	 0.934228	 -0.390224
C	 -3.240162	 0.342701	 0.161016
C	 -2.105997	 -0.000418	 -0.398703
H	 -3.485368	 0.047206	 1.162193
O	 -0.990241	 0.756792	 -0.291244
H	 -1.996689	 -0.908124	 -0.963724
C	 0.137245	 0.381116	 -0.998889
C	 0.180909	 1.017054	 -2.373193
H	 0.206315	 -0.692532	 -1.126489
H	 1.004415	 0.723735	 -0.454768
F	 1.288024	 0.654468	 -2.989560
F	 -0.834211	 0.640456	 -3.120998
F	 0.165179	 2.326389	 -2.311141

6 3 2 1 F
