%nprocshared=1
%mem=2GB
#HF/6-31G* nosymm scf=tight opt=ModRedundant

Mol

0 1
O	 0.997377	 1.025656	 0.761749
C	 1.122059	 0.121804	 -0.000188
C	 0.137069	 -0.260433	 -1.077955
O	 2.172624	 -0.688929	 0.000216
C	 -1.092917	 0.640949	 -1.122534
H	 0.670094	 -0.246184	 -2.024758
H	 -0.140723	 -1.297591	 -0.910950
C	 -2.073989	 0.231814	 -2.222295
H	 -0.778555	 1.668995	 -1.273534
H	 -1.590295	 0.616452	 -0.157900
C	 -3.309934	 1.128949	 -2.273206
H	 -1.570343	 0.257288	 -3.186540
H	 -2.383728	 -0.799799	 -2.067677
H	 -3.035636	 2.162946	 -2.460994
H	 -3.988658	 0.817758	 -3.061096
H	 -3.855156	 1.097823	 -1.334375
C	 3.452279	 -0.082609	 0.000533
H	 3.583069	 0.529321	 -0.880332
H	 4.163299	 -0.894027	 0.001117
H	 3.582335	 0.529955	 0.881077

1 2 4 17 F
