%nprocshared=1
%mem=2GB
#HF/6-31G* nosymm scf=tight 

Mol

0 1
O	 -0.291628	 1.323815	 -0.000732
C	 -0.449655	 0.146360	 0.000961
C	 -1.783294	 -0.549321	 -0.000296
O	 0.550821	 -0.724572	 0.000672
H	 -1.863538	 -1.185371	 -0.874187
H	 -2.574672	 0.185258	 -0.002793
H	 -1.866414	 -1.182381	 0.875436
C	 0.503293	 -1.756923	 0.969317
H	 0.505358	 -1.341771	 1.966814
H	 1.388885	 -2.351903	 0.809705
H	 -0.382901	 -2.360680	 0.837100

2 4 8 9 F
