%nprocshared=1
%mem=2GB
#HF/6-31G* nosymm scf=tight 

Mol

0 1
O	 -1.276010	 1.052711	 -0.768302
C	 -1.204840	 0.067374	 -0.106123
C	 -2.388195	 -0.672128	 0.458071
O	 -0.067104	 -0.527208	 0.221609
H	 -2.388023	 -1.694060	 0.097175
H	 -3.300579	 -0.174919	 0.164318
H	 -2.315377	 -0.706351	 1.539059
C	 0.487138	 -0.300352	 1.525173
C	 1.980599	 -0.539190	 1.390566
C	 -0.175584	 -1.226045	 2.533408
H	 0.295567	 0.728360	 1.792679
H	 2.410149	 0.128532	 0.652406
H	 2.474375	 -0.363202	 2.340590
H	 2.179519	 -1.560657	 1.084477
H	 0.255707	 -1.075456	 3.517953
H	 -1.237976	 -1.027698	 2.596312
H	 -0.027439	 -2.263308	 2.250306

11 8 4 2 F
