%nprocshared=1
%mem=2GB
#HF/6-31G* nosymm scf=tight opt=ModRedundant

Mol

0 1
O	 -0.682937	 1.318834	 -0.186099
C	 -0.860635	 0.152188	 -0.042321
C	 -2.173363	 -0.477127	 0.338347
O	 0.083258	 -0.765189	 -0.202595
H	 -2.477673	 -1.180929	 -0.427595
H	 -2.923125	 0.290956	 0.455536
H	 -2.058825	 -1.029004	 1.264191
C	 -0.300604	 -2.138252	 -0.214667
C	 -0.772689	 -2.571982	 -1.590043
H	 -1.063952	 -2.299882	 0.531199
H	 0.593340	 -2.672073	 0.074119
H	 -0.984996	 -3.636709	 -1.586507
H	 -1.676353	 -2.046074	 -1.871432
H	 -0.007427	 -2.379631	 -2.334215

8 4 2 1 F
