%nprocshared=4
%mem=2GB
#HF/cc-pVTZ nosymm scf=tight opt=ModRedundant

Mol

0 1
H	 2.614283	 2.028610	 0.296620
O	 3.358864	 1.662087	 -0.142800
C	 3.565468	 0.338079	 0.273842
C	 2.533667	 -0.637565	 -0.272227
H	 4.548038	 0.064914	 -0.086598
H	 3.593945	 0.282242	 1.360360
C	 3.112581	 -1.718474	 -1.182360
H	 2.019496	 -1.100757	 0.564576
H	 1.790362	 -0.064888	 -0.821714
C	 2.043596	 -2.658666	 -1.737470
H	 3.849348	 -2.293961	 -0.631914
H	 3.638610	 -1.247671	 -2.011169
C	 2.558143	 -3.716919	 -2.715016
H	 1.536482	 -3.150229	 -0.910772
H	 1.288778	 -2.062671	 -2.242948
C	 3.475120	 -4.773144	 -2.100783
H	 1.701334	 -4.218227	 -3.156713
H	 3.075324	 -3.225301	 -3.535986
C	 3.881035	 -5.861004	 -3.091845
H	 2.973492	 -5.232423	 -1.251724
H	 4.372698	 -4.305604	 -1.707383
C	 4.799615	 -6.915151	 -2.482849
H	 2.988356	 -6.343114	 -3.480781
H	 4.374829	 -5.402960	 -3.944737
H	 4.321790	 -7.414513	 -1.646452
H	 5.065982	 -7.672533	 -3.211223
H	 5.719371	 -6.469786	 -2.118088

8 4 3 2 F
