%nprocshared=4
%mem=2GB
#HF/cc-pVTZ nosymm scf=tight opt=ModRedundant

Mol

0 1
O	 -1.278239	 1.034789	 -0.784693
C	 -1.204115	 0.062668	 -0.112312
C	 -2.386398	 -0.667698	 0.460323
O	 -0.068058	 -0.518372	 0.226882
H	 -2.382952	 -1.693172	 0.114333
H	 -3.296656	 -0.175702	 0.158400
H	 -2.312537	 -0.685191	 1.540100
C	 1.169651	 0.147728	 -0.043656
C	 2.215461	 -0.940489	 -0.182138
C	 1.480078	 1.131287	 1.070279
H	 1.062598	 0.679940	 -0.976597
H	 1.954672	 -1.622252	 -0.981474
H	 3.180011	 -0.501589	 -0.407355
H	 2.303150	 -1.508093	 0.736596
H	 2.423048	 1.627722	 0.873151
H	 0.709557	 1.886157	 1.141821
H	 1.557464	 0.616317	 2.021121

8 4 2 1 F
