%nprocshared=1
%mem=2GB
#HF/6-31G* nosymm scf=tight 

Mol

0 1
O	 3.221288	 0.961395	 -0.618735
C	 2.698682	 0.053103	 -0.057532
C	 1.243191	 -0.017990	 0.336527
O	 3.347903	 -1.046386	 0.304773
C	 0.450101	 1.221739	 -0.071142
H	 0.838092	 -0.923069	 -0.103834
H	 1.206824	 -0.169332	 1.412384
C	 -1.003671	 1.211328	 0.413558
H	 0.476821	 1.325244	 -1.151740
H	 0.950586	 2.098296	 0.325827
C	 -1.886190	 0.129800	 -0.216178
H	 -1.438157	 2.184294	 0.196115
H	 -1.023724	 1.107821	 1.497483
C	 -3.350426	 0.230486	 0.216112
H	 -1.825576	 0.205430	 -1.300809
H	 -1.510871	 -0.857681	 0.042645
C	 -4.240746	 -0.848509	 -0.402946
H	 -3.737880	 1.212042	 -0.051588
H	 -3.410746	 0.165696	 1.301406
C	 -5.702075	 -0.738589	 0.030800
H	 -4.180863	 -0.785837	 -1.487440
H	 -3.857580	 -1.830357	 -0.132873
H	 -6.307445	 -1.516497	 -0.424164
H	 -6.125147	 0.219959	 -0.256240
H	 -5.799196	 -0.832003	 1.108815
C	 4.728119	 -1.109107	 -0.004993
H	 4.882018	 -1.033965	 -1.071845
H	 5.068212	 -2.067527	 0.355250
H	 5.265056	 -0.311663	 0.488280

21 17 14 11 F
17 14 11 15 F
15 11 8 5 F
6 3 5 9 F
11 8 5 9 F
1 2 4 26 F
6 3 2 1 F
