%nprocshared=4
%mem=2GB
#HF/cc-pVTZ nosymm scf=tight opt=ModRedundant

Mol

0 1
H	 0.823640	 1.746104	 6.596204
C	 0.331630	 0.848293	 6.240215
C	 -0.296070	 1.070685	 4.868406
H	 1.072520	 0.057070	 6.204653
H	 -0.416809	 0.567942	 6.974410
C	 -1.008730	 -0.171781	 4.338912
H	 0.473872	 1.372035	 4.167468
H	 -1.005775	 1.892670	 4.927436
C	 -1.652310	 0.023052	 2.969703
H	 -0.308283	 -0.995987	 4.285183
H	 -1.784481	 -0.461458	 5.041821
C	 -0.669819	 0.119419	 1.814753
H	 -2.301503	 -0.819275	 2.744315
H	 -2.294396	 0.898950	 2.962912
C	 -1.180025	 0.697761	 0.509157
O	 0.451875	 -0.261102	 1.916151
C	 -2.285431	 -0.137488	 -0.145671
H	 -0.330377	 0.778197	 -0.155274
H	 -1.551823	 1.700948	 0.700409
C	 -3.646545	 0.082747	 0.508954
H	 -2.348635	 0.118247	 -1.199806
H	 -2.034895	 -1.192387	 -0.096473
C	 -4.757412	 -0.737227	 -0.138149
H	 -3.900211	 1.137405	 0.459735
H	 -3.580878	 -0.166775	 1.564416
H	 -4.867876	 -0.486707	 -1.187777
H	 -4.549650	 -1.800049	 -0.072540
H	 -5.709585	 -0.556397	 0.346597

12 15 17 21 F
