%nprocshared=4
%mem=2GB
#HF/cc-pVTZ nosymm scf=tight opt=ModRedundant

Mol

0 1
H	 4.825132	 3.027235	 -0.313938
C	 4.532563	 1.988420	 -0.414601
C	 3.145172	 1.747274	 0.170480
H	 4.557979	 1.738388	 -1.469614
H	 5.281392	 1.383755	 0.086832
C	 2.703383	 0.289984	 0.056023
H	 2.428100	 2.383198	 -0.335828
H	 3.141092	 2.041471	 1.217502
C	 1.320499	 0.017299	 0.639257
H	 2.712864	 -0.010873	 -0.984277
H	 3.421547	 -0.339335	 0.573691
C	 0.166485	 0.574257	 -0.177158
H	 1.153397	 -1.054802	 0.705902
H	 1.247209	 0.389915	 1.656756
C	 -1.180025	 0.697761	 0.509157
O	 0.300689	 0.884056	 -1.317022
C	 -2.285431	 -0.137488	 -0.145671
H	 -1.447360	 1.745713	 0.496200
H	 -1.065514	 0.394096	 1.546399
C	 -3.646545	 0.082747	 0.508954
H	 -2.348635	 0.118247	 -1.199806
H	 -2.034895	 -1.192387	 -0.096473
C	 -4.757412	 -0.737227	 -0.138149
H	 -3.900211	 1.137405	 0.459735
H	 -3.580878	 -0.166775	 1.564416
H	 -4.867876	 -0.486707	 -1.187777
H	 -4.549650	 -1.800049	 -0.072540
H	 -5.709585	 -0.556397	 0.346597

16 12 15 17 F
