%nprocshared=4
%mem=2GB
#HF/cc-pVTZ nosymm scf=tight opt=ModRedundant

Mol

0 1
H	 -3.436473	 1.252944	 -1.023892
O	 -3.458596	 0.315260	 -0.960865
C	 -3.176635	 -0.080824	 0.355601
C	 -1.763371	 0.265266	 0.799691
H	 -3.321825	 -1.153438	 0.379502
H	 -3.895468	 0.357385	 1.043382
C	 -0.673390	 -0.426948	 -0.013392
H	 -1.631049	 1.344913	 0.747560
H	 -1.664587	 -0.001624	 1.849167
C	 0.737842	 -0.043159	 0.423759
H	 -0.806103	 -0.190518	 -1.063345
H	 -0.797221	 -1.503753	 0.074146
C	 1.302511	 1.139817	 -0.360311
H	 0.727582	 0.186314	 1.484950
H	 1.398625	 -0.899118	 0.303109
C	 2.745366	 1.511682	 -0.014284
H	 0.663880	 2.007182	 -0.209719
H	 1.252006	 0.908578	 -1.420781
C	 2.944291	 2.048659	 1.401071
H	 3.084807	 2.262579	 -0.721186
H	 3.384507	 0.645332	 -0.163803
H	 2.312746	 2.912720	 1.581698
H	 3.972800	 2.354776	 1.555030
H	 2.710682	 1.305408	 2.153805

13 10 7 11 F
