%nprocshared=4
%mem=2GB
#HF/cc-pVTZ nosymm scf=tight opt=ModRedundant

Mol

0 1
H	 -2.644180	 -0.653737	 1.272255
C	 -2.092774	 -0.380414	 0.391915
O	 -0.808934	 -0.154049	 0.752536
F	 -2.163230	 -1.351640	 -0.507133
F	 -2.627232	 0.691260	 -0.169301
C	 -0.158484	 -1.108155	 1.504798
C	 0.604341	 -0.378695	 2.608094
Cl	 0.965321	 -2.053035	 0.509911
H	 -0.837184	 -1.801739	 1.969506
F	 1.235759	 -1.234240	 3.371231
F	 -0.250705	 0.276558	 3.356996
F	 1.468563	 0.474564	 2.131313

6 3 2 4 F
