%nprocshared=4
%mem=2GB
#HF/6-31G* nosymm scf=tight opt=ModRedundant

Mol

0 1
O	 1.846825	 1.296220	 0.000415
C	 1.705091	 0.115954	 0.001797
C	 0.381791	 -0.609817	 0.001258
O	 2.721346	 -0.737485	 -0.000216
C	 -0.823008	 0.326187	 0.001381
H	 0.371250	 -1.265087	 -0.865474
H	 0.370908	 -1.265746	 0.867490
C	 -1.481300	 0.425078	 -1.375548
H	 -0.510305	 1.311469	 0.332478
H	 -1.546299	 -0.021986	 0.732090
C	 -2.691275	 1.360751	 -1.393810
H	 -0.749995	 0.771269	 -2.104480
H	 -1.790497	 -0.566398	 -1.703044
C	 -3.349330	 1.458205	 -2.769571
H	 -2.383539	 2.352299	 -1.069352
H	 -3.423084	 1.015743	 -0.666786
H	 -2.651473	 1.833841	 -3.512610
H	 -4.203374	 2.128040	 -2.750091
H	 -3.698891	 0.486496	 -3.107060
C	 4.024888	 -0.184556	 -0.001949
H	 4.179030	 0.422472	 -0.882452
H	 4.701782	 -1.024608	 -0.003642
H	 4.181981	 0.421185	 0.878906

9 5 3 6 F
