%nprocshared=1
%mem=2GB
#HF/6-31G* nosymm scf=tight opt=ModRedundant

Mol

0 1
H	 -0.526506	 -1.609403	 0.300340
N	 -0.626943	 -0.667432	 -0.000092
C	 -1.936801	 -0.217709	 -0.413296
C	 0.469286	 0.129090	 0.000148
H	 -2.298578	 -0.797387	 -1.255968
H	 -1.860823	 0.816592	 -0.706855
H	 -2.650974	 -0.301613	 0.399077
C	 1.788933	 -0.616240	 -0.000037
O	 0.411098	 1.327768	 -0.000049
H	 1.872803	 -1.245775	 -0.880381
H	 2.595421	 0.101576	 0.003713
H	 1.870096	 -1.252171	 0.875943

3 2 4 9 F
