%nprocshared=1
%mem=2GB
#HF/6-31G* nosymm scf=tight opt=ModRedundant

Mol

0 1
O	 0.653587	 -0.125839	 0.500792
C	 1.705091	 0.115954	 0.001797
C	 2.070425	 1.402617	 -0.697415
O	 2.721346	 -0.737485	 -0.000216
C	 0.935964	 2.422437	 -0.722127
H	 2.949701	 1.803705	 -0.200710
H	 2.390958	 1.145746	 -1.703395
C	 1.333540	 3.715720	 -1.435159
H	 0.629851	 2.641505	 0.295955
H	 0.070935	 1.983377	 -1.209221
C	 0.207425	 4.750425	 -1.468454
H	 2.203632	 4.149217	 -0.944225
H	 1.641728	 3.489096	 -2.454739
C	 0.604867	 6.041945	 -2.182084
H	 -0.099845	 4.979819	 -0.450562
H	 -0.662161	 4.319172	 -1.959349
H	 1.451467	 6.515796	 -1.693262
H	 -0.213810	 6.754802	 -2.189362
H	 0.885144	 5.849801	 -3.213994
C	 4.024888	 -0.184556	 -0.001949
H	 4.179030	 0.422472	 -0.882452
H	 4.701782	 -1.024608	 -0.003642
H	 4.181981	 0.421185	 0.878906

1 2 4 20 F
