%nprocshared=4
%mem=2GB
#HF/cc-pVTZ nosymm scf=tight opt=ModRedundant

Mol

0 1
H	 1.651322	 -0.822465	 0.000000
O	 0.729993	 -1.034364	 0.000000
C	 0.037305	 0.100061	 0.000000
C	 -1.283026	 -0.047514	 0.694999
O	 0.445205	 1.090696	 -0.499054
H	 -1.865682	 -0.816362	 0.204232
H	 -1.810107	 0.891840	 0.672089
H	 -1.119751	 -0.360891	 1.718036

4 3 2 1 F
