%nprocshared=1
%mem=2GB
#HF/6-31G* nosymm scf=tight 

Mol

0 1
O	 -1.712467	 -3.705612	 0.214334
C	 -1.004299	 -3.624345	 -0.742917
C	 -0.312609	 -2.317899	 -1.090872
C	 -0.734370	 -4.816009	 -1.634235
C	 0.928079	 -2.102816	 -0.209070
H	 -1.021408	 -1.514909	 -0.920244
H	 -0.029970	 -2.302523	 -2.139635
C	 1.631333	 -0.777471	 -0.511575
H	 0.616240	 -2.141439	 0.828547
H	 1.629481	 -2.922461	 -0.357273
C	 2.915987	 -0.544314	 0.291766
H	 0.940429	 0.043843	 -0.330409
H	 1.874409	 -0.743366	 -1.571574
C	 3.373361	 0.914346	 0.347591
H	 3.708709	 -1.142521	 -0.150311
H	 2.780642	 -0.921148	 1.303579
H	 3.506512	 1.320010	 -0.651625
H	 4.322697	 0.999599	 0.867103
H	 2.660624	 1.545032	 0.868198
H	 -1.160889	 -4.640154	 -2.618319
H	 -1.174448	 -5.705845	 -1.206090
H	 0.333585	 -4.960822	 -1.769533

6 3 2 1 F
6 3 5 8 F
3 5 8 12 F
