%nprocshared=1
%mem=2GB
#HF/6-31G* nosymm scf=tight 

Mol

0 1
H	 2.720640	 1.818852	 0.725355
O	 3.461414	 1.492322	 0.235761
C	 3.630520	 0.121089	 0.491062
C	 2.569257	 -0.749334	 -0.172876
H	 4.607797	 -0.132590	 0.100870
H	 3.652166	 -0.066944	 1.563887
C	 1.149719	 -0.502926	 0.343904
H	 2.602475	 -0.575832	 -1.245331
H	 2.836811	 -1.792324	 -0.011775
C	 0.115918	 -1.429151	 -0.302766
H	 0.876499	 0.531962	 0.157566
H	 1.128402	 -0.643292	 1.424730
C	 -1.309753	 -1.282496	 0.241564
H	 0.109302	 -1.262597	 -1.378434
H	 0.435424	 -2.459025	 -0.157936
C	 -2.037799	 -0.007733	 -0.193645
H	 -1.890610	 -2.142323	 -0.085726
H	 -1.285946	 -1.330893	 1.329189
C	 -3.489788	 0.042957	 0.286558
H	 -2.017067	 0.064384	 -1.280144
H	 -1.513726	 0.868678	 0.179924
C	 -4.216917	 1.317354	 -0.141063
H	 -4.025645	 -0.823308	 -0.095450
H	 -3.513059	 -0.038752	 1.371301
H	 -4.239342	 1.411634	 -1.223113
H	 -5.243387	 1.322503	 0.212445
H	 -3.726170	 2.201406	 0.256408

14 10 7 4 F
10 7 4 8 F
8 4 3 2 F
10 13 16 20 F
20 16 19 22 F
4 3 2 1 F
