%nprocshared=1
%mem=2GB
#HF/6-31G* nosymm scf=tight 

Mol

0 1
H	 -2.189604	 0.743646	 2.369166
C	 -1.642376	 0.159036	 3.105992
O	 -0.422035	 -0.280173	 2.602801
H	 -1.435557	 0.783072	 3.964448
H	 -2.269563	 -0.674254	 3.420144
C	 -0.529519	 -1.107745	 1.487982
C	 0.852516	 -1.428663	 0.969139
H	 -1.037135	 -2.035892	 1.753626
H	 -1.104646	 -0.624201	 0.700951
O	 1.392611	 -0.295398	 0.366430
H	 1.477051	 -1.762605	 1.795242
H	 0.784263	 -2.244221	 0.248099
C	 2.706965	 -0.449871	 -0.062409
H	 2.756559	 -0.644779	 -1.131878
H	 3.305899	 0.433456	 0.155466
H	 3.125548	 -1.294566	 0.467107

3 6 7 11 F
2 3 6 7 F
