%nprocshared=4
%mem=2GB
#HF/cc-pVTZ nosymm scf=tight opt=ModRedundant

Mol

0 1
H	 -2.644180	 -0.653737	 1.272255
C	 -2.092774	 -0.380414	 0.391915
O	 -0.808934	 -0.154049	 0.752536
F	 -2.163230	 -1.351640	 -0.507133
F	 -2.627232	 0.691260	 -0.169301
C	 0.085006	 0.250800	 -0.215074
C	 1.457222	 -0.294697	 0.173171
Cl	 0.144253	 2.019380	 -0.334035
H	 -0.162075	 -0.128698	 -1.191075
F	 2.353906	 0.044340	 -0.717916
F	 1.400691	 -1.604909	 0.211412
F	 1.846752	 0.132424	 1.342823

9 6 3 2 F
