%nprocshared=1
%mem=2GB
#HF/6-31G* nosymm scf=tight opt=ModRedundant

Mol

0 1
O	 1.846825	 1.296220	 0.000415
C	 1.705091	 0.115954	 0.001797
C	 0.381791	 -0.609817	 0.001258
O	 2.721346	 -0.737485	 -0.000216
C	 -0.823008	 0.326187	 0.001381
H	 0.371250	 -1.265087	 -0.865474
H	 0.370908	 -1.265746	 0.867490
C	 -0.804528	 1.295863	 1.183941
H	 -1.734003	 -0.263601	 0.022037
H	 -0.844470	 0.881608	 -0.931012
C	 -2.006554	 2.241765	 1.200165
H	 -0.779414	 0.732848	 2.115810
H	 0.112478	 1.882683	 1.158963
C	 -1.986905	 3.211204	 2.381289
H	 -2.923384	 1.657124	 1.227711
H	 -2.032515	 2.805522	 0.270304
H	 -1.995527	 2.677258	 3.327355
H	 -2.850970	 3.868146	 2.364863
H	 -1.097271	 3.834512	 2.362577
C	 4.024888	 -0.184556	 -0.001949
H	 4.179030	 0.422472	 -0.882452
H	 4.701782	 -1.024608	 -0.003642
H	 4.181981	 0.421185	 0.878906

9 5 3 6 F
