%nprocshared=4
%mem=2GB
#HF/cc-pVTZ nosymm scf=tight 
prop=(read,field)

Mol

0 1
H	 -4.230490	 0.539120	 0.036347
O	 -3.515344	 -0.019331	 -0.206334
C	 -2.302495	 0.528880	 0.237377
C	 -1.175919	 -0.398179	 -0.171904
H	 -2.148249	 1.514084	 -0.197772
H	 -2.310958	 0.646392	 1.319019
C	 0.195798	 0.106284	 0.266725
H	 -1.202104	 -0.515461	 -1.250690
H	 -1.366206	 -1.378720	 0.252651
C	 1.329989	 -0.826128	 -0.155243
H	 0.359311	 1.097237	 -0.145574
H	 0.211903	 0.218143	 1.348765
C	 2.719469	 -0.407661	 0.328312
H	 1.339157	 -0.911192	 -1.239376
H	 1.118770	 -1.821945	 0.224115
C	 3.241333	 0.893460	 -0.276750
H	 3.418068	 -1.204721	 0.093022
H	 2.711545	 -0.323360	 1.411947
H	 3.253973	 0.841079	 -1.360797
H	 2.634229	 1.745083	 0.005829
H	 4.254033	 1.092409	 0.054958

@grid.dat /N
