%nprocshared=1
%mem=2GB
#HF/6-31G* nosymm scf=tight 

Mol

0 1
O	 -0.682937	 1.318834	 -0.186099
C	 -0.860635	 0.152188	 -0.042321
C	 -2.173363	 -0.477127	 0.338347
O	 0.083258	 -0.765189	 -0.202595
H	 -2.477673	 -1.180929	 -0.427595
H	 -2.923125	 0.290956	 0.455536
H	 -2.058825	 -1.029004	 1.264191
C	 -0.003796	 -1.638691	 -1.326078
C	 0.585199	 -1.003310	 -2.571881
H	 -1.034976	 -1.918934	 -1.478625
H	 0.559790	 -2.513025	 -1.033828
H	 0.573715	 -1.718022	 -3.389062
H	 0.010661	 -0.135667	 -2.870993
H	 1.612384	 -0.701999	 -2.397187

10 8 4 2 F
