%nprocshared=4
%mem=2GB
#HF/6-31G* nosymm scf=tight opt=ModRedundant

Mol

0 1
O	 -2.726481	 -0.035318	 0.349016
C	 -1.911616	 -0.530502	 1.066805
C	 -0.670985	 -1.193991	 0.495033
C	 -2.053485	 -0.495405	 2.572135
C	 0.379448	 -0.143569	 0.099626
H	 -0.972536	 -1.752917	 -0.384156
H	 -0.246658	 -1.892315	 1.210796
C	 1.631333	 -0.777471	 -0.511575
H	 -0.079118	 0.546685	 -0.599409
H	 0.663563	 0.438117	 0.975221
C	 2.915987	 -0.544314	 0.291766
H	 1.766672	 -0.399098	 -1.523130
H	 1.471257	 -1.849544	 -0.605828
C	 3.373361	 0.914346	 0.347591
H	 3.708709	 -1.142521	 -0.150311
H	 2.780642	 -0.921148	 1.303579
H	 3.506512	 1.320010	 -0.651625
H	 4.322697	 0.999599	 0.867103
H	 2.660624	 1.545032	 0.868198
H	 -2.196096	 -1.504729	 2.949217
H	 -2.901608	 0.114739	 2.849978
H	 -1.151137	 -0.105610	 3.034338

3 5 8 12 F
