%nprocshared=4
%mem=2GB
#HF/cc-pVTZ nosymm scf=tight opt=ModRedundant

Mol

0 1
H	 2.614283	 2.028610	 0.296620
O	 3.358864	 1.662087	 -0.142800
C	 3.565468	 0.338079	 0.273842
C	 2.533667	 -0.637565	 -0.272227
H	 4.548038	 0.064914	 -0.086598
H	 3.593945	 0.282242	 1.360360
C	 2.880190	 -1.215034	 -1.642738
H	 2.408435	 -1.444404	 0.443655
H	 1.580631	 -0.117381	 -0.331638
C	 1.806405	 -2.164075	 -2.172967
H	 3.827841	 -1.739655	 -1.581636
H	 3.018323	 -0.400829	 -2.352158
C	 2.066660	 -2.715195	 -3.576103
H	 1.687589	 -2.992254	 -1.478540
H	 0.855410	 -1.638715	 -2.181564
C	 3.262277	 -3.659457	 -3.688403
H	 1.176571	 -3.244492	 -3.904912
H	 2.196831	 -1.886338	 -4.268350
C	 3.420573	 -4.259508	 -5.083140
H	 3.152536	 -4.463487	 -2.963862
H	 4.177215	 -3.136685	 -3.426488
C	 4.615575	 -5.199860	 -5.199760
H	 2.513521	 -4.795911	 -5.347914
H	 3.521841	 -3.457296	 -5.809269
H	 4.528300	 -6.031249	 -4.508087
H	 4.697162	 -5.609650	 -6.200022
H	 5.543658	 -4.683413	 -4.977733

8 4 3 2 F
