%nprocshared=1
%mem=2GB
#HF/6-31G* nosymm scf=tight 

Mol

0 1
O	 3.225979	 0.970355	 -0.599647
C	 2.701189	 0.057885	 -0.047330
C	 1.245376	 -0.013843	 0.345420
O	 3.347903	 -1.046386	 0.304773
C	 0.729133	 1.278823	 0.973608
H	 0.688291	 -0.283918	 -0.545596
H	 1.136162	 -0.851857	 1.029161
C	 -0.716740	 1.187678	 1.473247
H	 0.819672	 2.087856	 0.255007
H	 1.375807	 1.542135	 1.803610
C	 -1.768525	 1.003924	 0.375480
H	 -0.941960	 2.099868	 2.020887
H	 -0.800883	 0.375226	 2.193560
C	 -3.200643	 1.029146	 0.913439
H	 -1.650108	 1.790192	 -0.368549
H	 -1.605807	 0.063212	 -0.145630
C	 -4.260006	 0.841203	 -0.174016
H	 -3.376054	 1.973816	 1.425362
H	 -3.316665	 0.250051	 1.665270
C	 -5.687518	 0.871470	 0.370955
H	 -4.144862	 1.618325	 -0.926655
H	 -4.088950	 -0.104567	 -0.683957
H	 -6.415155	 0.735662	 -0.423217
H	 -5.901563	 1.819179	 0.856987
H	 -5.844929	 0.083376	 1.101984
C	 4.728119	 -1.109107	 -0.004993
H	 4.882018	 -1.033965	 -1.071845
H	 5.068212	 -2.067527	 0.355250
H	 5.265056	 -0.311663	 0.488280

21 17 14 11 F
17 14 11 15 F
15 11 8 5 F
6 3 5 9 F
11 8 5 9 F
2 4 26 27 F
1 2 4 26 F
