%nprocshared=4
%mem=2GB
#HF/cc-pVTZ nosymm scf=tight opt=ModRedundant

Mol

0 1
H	 -3.821619	 -2.262248	 -0.312669
C	 -2.751601	 -2.178095	 -0.325164
C	 -1.979754	 -3.251241	 -0.732904
C	 -2.148968	 -0.997587	 0.066266
H	 -2.448205	 -4.167227	 -1.036591
C	 -0.604841	 -3.142346	 -0.748692
H	 -2.748430	 -0.165938	 0.382302
C	 -0.772366	 -0.886999	 0.051008
H	 0.007843	 -3.963231	 -1.061462
C	 0.003934	 -1.960076	 -0.356884
H	 -0.302509	 0.025825	 0.353528
C	 1.492955	 -1.892891	 -0.391824
O	 1.968286	 -0.725612	 -0.000027
O	 2.185719	 -2.791481	 -0.735036
C	 3.373556	 -0.568203	 0.000011
H	 3.695416	 -0.031588	 -0.879663
H	 3.782700	 -1.565294	 -0.000152
H	 3.695405	 -0.031851	 0.879862

12 13 15 16 F
