%nprocshared=4
%mem=2GB
#HF/cc-pVTZ nosymm scf=tight opt=ModRedundant

Mol

0 1
H	 2.042579	 1.717734	 6.053552
C	 0.964722	 1.728583	 5.939649
C	 0.566398	 1.790153	 4.468979
H	 0.573308	 0.833630	 6.410893
H	 0.582853	 2.584567	 6.486704
C	 -0.947402	 1.817909	 4.269957
H	 0.983664	 0.935243	 3.949405
H	 1.003453	 2.676851	 4.015578
C	 -1.375879	 1.885894	 2.807537
H	 -1.389000	 0.940664	 4.726314
H	 -1.356402	 2.682170	 4.785277
C	 -1.158526	 0.603377	 2.022431
H	 -2.439467	 2.101758	 2.744697
H	 -0.879168	 2.704131	 2.294425
C	 -1.180025	 0.697761	 0.509157
O	 -0.997942	 -0.441586	 2.566068
C	 -2.285431	 -0.137488	 -0.145671
H	 -0.209921	 0.373472	 0.157623
H	 -1.304974	 1.741273	 0.232271
C	 -3.646545	 0.082747	 0.508954
H	 -2.348635	 0.118247	 -1.199806
H	 -2.034895	 -1.192387	 -0.096473
C	 -4.757412	 -0.737227	 -0.138149
H	 -3.900211	 1.137405	 0.459735
H	 -3.580878	 -0.166775	 1.564416
H	 -4.867876	 -0.486707	 -1.187777
H	 -4.549650	 -1.800049	 -0.072540
H	 -5.709585	 -0.556397	 0.346597

16 12 15 17 F
