%nprocshared=4
%mem=2GB
#HF/cc-pVTZ nosymm scf=tight opt=ModRedundant

Mol

0 1
O	 3.042008	 -0.988224	 0.050560
C	 2.574127	 -2.072921	 -0.023620
C	 3.300766	 -3.312667	 -0.478981
O	 1.317782	 -2.342573	 0.292610
C	 4.249302	 -3.879440	 0.569971
H	 2.544046	 -4.030078	 -0.772662
H	 3.833867	 -3.054231	 -1.388566
C	 3.585702	 -4.151822	 1.920631
H	 5.084660	 -3.200515	 0.701529
H	 4.671793	 -4.801650	 0.190447
C	 2.255112	 -4.899383	 1.849295
H	 3.420546	 -3.197687	 2.412071
H	 4.274466	 -4.702656	 2.557393
C	 2.312213	 -6.135060	 0.955075
H	 1.959201	 -5.196516	 2.852798
H	 1.474078	 -4.239032	 1.483975
C	 2.480691	 -5.806488	 -0.525610
H	 1.404772	 -6.718540	 1.090878
H	 3.133154	 -6.772513	 1.275347
C	 2.535058	 -7.045882	 -1.412584
H	 1.661003	 -5.169740	 -0.847142
H	 3.388725	 -5.225680	 -0.663430
H	 2.655193	 -6.777673	 -2.455952
H	 1.625349	 -7.630463	 -1.324243
H	 3.366106	 -7.687269	 -1.138376
C	 0.824678	 -3.623490	 -0.043565
H	 -0.139967	 -3.792406	 0.411591
H	 1.544729	 -4.329140	 0.337866
H	 0.731980	 -3.727573	 -1.114467

6 3 2 1 F
