%nprocshared=4
%mem=2GB
#HF/cc-pVTZ nosymm scf=tight opt=ModRedundant

Mol

0 1
H	 -3.143472	 -2.394860	 5.870724
C	 -2.211581	 -1.852179	 5.761440
C	 -1.920750	 -1.545602	 4.296260
H	 -2.290736	 -0.938926	 6.341026
H	 -1.423839	 -2.455652	 6.200852
C	 -0.607973	 -0.789932	 4.102483
H	 -2.737020	 -0.963763	 3.883822
H	 -1.884184	 -2.476556	 3.735181
C	 -0.287373	 -0.474667	 2.644844
H	 -0.635735	 0.134857	 4.665354
H	 0.205547	 -1.383478	 4.509511
C	 -1.158526	 0.603377	 2.022431
H	 0.737063	 -0.120751	 2.560950
H	 -0.339931	 -1.370195	 2.032646
C	 -1.180025	 0.697761	 0.509157
O	 -1.785959	 1.361235	 2.689706
C	 -2.285431	 -0.137488	 -0.145671
H	 -0.209921	 0.373472	 0.157623
H	 -1.304974	 1.741273	 0.232271
C	 -3.646545	 0.082747	 0.508954
H	 -2.348635	 0.118247	 -1.199806
H	 -2.034895	 -1.192387	 -0.096473
C	 -4.757412	 -0.737227	 -0.138149
H	 -3.900211	 1.137405	 0.459735
H	 -3.580878	 -0.166775	 1.564416
H	 -4.867876	 -0.486707	 -1.187777
H	 -4.549650	 -1.800049	 -0.072540
H	 -5.709585	 -0.556397	 0.346597

16 12 15 17 F
