%nprocshared=4
%mem=2GB
#HF/cc-pVTZ nosymm scf=tight opt=ModRedundant

Mol

0 1
H	 -2.579498	 -0.818514	 1.759833
C	 -2.572620	 -1.330973	 0.800551
O	 -1.326463	 -1.255995	 0.193089
H	 -2.799327	 -2.374663	 0.962424
H	 -3.349945	 -0.897694	 0.173718
C	 -0.902177	 0.037304	 -0.087977
C	 0.498427	 0.004964	 -0.646194
H	 -1.563326	 0.500565	 -0.820262
H	 -0.914897	 0.650421	 0.810553
O	 1.401606	 -0.295166	 0.366636
H	 0.549859	 -0.736958	 -1.440132
H	 0.727889	 0.978056	 -1.080258
C	 2.714315	 -0.441627	 -0.061017
H	 2.765292	 -0.641548	 -1.128869
H	 3.305661	 0.447341	 0.150952
H	 3.143725	 -1.278506	 0.470147

7 10 13 14 F
