%nprocshared=1
%mem=2GB
#HF/6-31G* nosymm scf=tight 
prop=(read,field)

Mol

0 1
O	 -1.487881	 1.240969	 -0.102869
C	 -1.083369	 0.139648	 0.115188
C	 0.323206	 -0.082864	 0.642893
C	 -1.933110	 -1.084541	 -0.143911
C	 1.355534	 -0.005264	 -0.493136
H	 0.396158	 -1.044567	 1.143138
H	 0.528544	 0.693660	 1.371668
C	 2.786075	 -0.195525	 0.007463
H	 1.132714	 -0.760225	 -1.243908
H	 1.259517	 0.958586	 -0.981924
H	 3.495468	 -0.130634	 -0.811219
H	 2.912604	 -1.165316	 0.480031
H	 3.049191	 0.565583	 0.735841
H	 -1.393978	 -1.806368	 -0.750518
H	 -2.850416	 -0.799809	 -0.640109
H	 -2.169097	 -1.571079	 0.798849

@grid.dat /N
