%nprocshared=1
%mem=2GB
#HF/6-31G* nosymm scf=tight 

Mol

0 1
O	 -2.439739	 -0.935931	 -0.423848
C	 -1.921153	 0.064240	 -0.045697
C	 -2.624470	 1.379923	 0.150949
O	 -0.632575	 0.154573	 0.251549
H	 -2.168117	 2.136577	 -0.476876
H	 -3.669540	 1.273223	 -0.098610
H	 -2.519365	 1.700893	 1.180846
C	 0.160891	 -1.019931	 0.106212
C	 1.589627	 -0.672828	 0.480843
H	 0.089836	 -1.367806	 -0.916050
H	 -0.238459	 -1.792301	 0.749618
C	 2.208105	 0.428407	 -0.382386
H	 2.180832	 -1.581931	 0.391725
H	 1.617486	 -0.382787	 1.527914
C	 3.654567	 0.733549	 0.004443
H	 2.168814	 0.128840	 -1.427764
H	 1.610655	 1.330069	 -0.296252
H	 4.069889	 1.517496	 -0.620831
H	 4.285002	 -0.144587	 -0.103754
H	 3.722734	 1.063662	 1.037137

16 12 9 8 F
2 4 8 10 F
1 2 4 8 F
