%nprocshared=4
%mem=2GB
#HF/6-31G* nosymm scf=tight opt=ModRedundant

Mol

0 1
O	 -0.069996	 -1.371234	 -2.730841
C	 -0.603543	 -0.446493	 -2.197348
C	 -0.889235	 -0.467034	 -0.705952
C	 -0.990795	 0.797659	 -2.965137
C	 0.379448	 -0.143569	 0.099626
H	 -1.235596	 -1.462731	 -0.451145
H	 -1.676705	 0.238910	 -0.457837
C	 1.631333	 -0.777471	 -0.511575
H	 0.482768	 0.934507	 0.149241
H	 0.263088	 -0.495696	 1.123449
C	 2.915987	 -0.544314	 0.291766
H	 1.766672	 -0.399098	 -1.523130
H	 1.471257	 -1.849544	 -0.605828
C	 3.373361	 0.914346	 0.347591
H	 3.708709	 -1.142521	 -0.150311
H	 2.780642	 -0.921148	 1.303579
H	 3.506512	 1.320010	 -0.651625
H	 4.322697	 0.999599	 0.867103
H	 2.660624	 1.545032	 0.868198
H	 -2.073342	 0.892245	 -2.985378
H	 -0.616593	 0.739332	 -3.977735
H	 -0.600905	 1.686855	 -2.478186

6 3 5 8 F
