%nprocshared=1
%mem=2GB
#HF/6-31G* nosymm scf=tight opt=ModRedundant

Mol

0 1
H	 -2.698709	 -0.000305	 0.034435
C	 -1.693833	 0.000034	 0.434417
O	 -0.828952	 -0.000968	 -0.659236
H	 -1.574200	 0.882896	 1.055746
H	 -1.574147	 -0.881698	 1.057355
C	 -1.250949	 0.616423	 -1.853075
C	 -2.461362	 -0.077461	 -2.474638
C	 -1.463677	 2.120234	 -1.691035
H	 -0.407485	 0.470373	 -2.517356
H	 -2.295074	 -1.148011	 -2.527736
H	 -2.624178	 0.292258	 -3.482127
H	 -3.371643	 0.100762	 -1.910910
H	 -0.607210	 2.570691	 -1.201126
H	 -1.582448	 2.585248	 -2.664750
H	 -2.351126	 2.349532	 -1.109917

6 3 2 1 F
