%nprocshared=4
%mem=2GB
#HF/6-31G* nosymm scf=tight opt=ModRedundant

Mol

0 1
O	 -2.439739	 -0.935931	 -0.423848
C	 -1.921153	 0.064240	 -0.045697
C	 -2.624470	 1.379923	 0.150949
O	 -0.632575	 0.154573	 0.251549
H	 -2.168117	 2.136577	 -0.476876
H	 -3.669540	 1.273223	 -0.098610
H	 -2.519365	 1.700893	 1.180846
C	 0.160891	 -1.019931	 0.106212
C	 1.589627	 -0.672828	 0.480843
H	 0.089836	 -1.367806	 -0.916050
H	 -0.238459	 -1.792301	 0.749618
C	 2.045542	 0.700808	 -0.014803
H	 2.233532	 -1.443970	 0.062919
H	 1.693178	 -0.730305	 1.561228
C	 3.496007	 1.006188	 0.356541
H	 1.931475	 0.747649	 -1.095957
H	 1.395692	 1.465276	 0.398286
H	 3.794781	 1.985047	 -0.004846
H	 4.174901	 0.274146	 -0.071823
H	 3.635401	 0.995003	 1.433816

12 9 8 10 F
