%nprocshared=1
%mem=2GB
#HF/6-31G* nosymm scf=tight opt=ModRedundant

Mol

0 1
H	 -1.836216	 1.387520	 -0.000064
C	 -1.301823	 0.443321	 -0.000031
O	 -0.003969	 0.658512	 0.000451
O	 -1.829879	 -0.616434	 -0.000857
C	 0.448461	 1.941224	 -0.432150
C	 1.959147	 1.943967	 -0.341921
H	 0.006744	 2.698414	 0.200990
H	 0.105858	 2.109230	 -1.443927
H	 2.284150	 1.766288	 0.676822
H	 2.345242	 2.905774	 -0.663000
H	 2.383904	 1.174292	 -0.976010

5 3 2 4 F
