%nprocshared=4
%mem=2GB
#HF/cc-pVTZ nosymm scf=tight opt=ModRedundant

Mol

0 1
H	 2.656265	 -0.390542	 0.933404
N	 1.680522	 -0.189020	 0.948374
C	 0.907934	 -1.407795	 1.080803
C	 1.294454	 0.561039	 -0.229848
H	 1.208923	 -1.921383	 1.985781
H	 1.061344	 -2.088765	 0.241538
C	 -0.567949	 -1.062370	 1.161575
H	 1.875524	 1.474114	 -0.274597
H	 1.472284	 0.004460	 -1.151920
C	 -0.181936	 0.903884	 -0.147358
H	 -0.753607	 -0.510005	 2.087325
H	 -1.151132	 -1.974754	 1.201246
N	 -0.976577	 -0.298712	 -0.000000
H	 -0.486006	 1.413226	 -1.054128
H	 -0.341001	 1.591708	 0.688218
C	 -2.391156	 -0.021003	 -0.000000
H	 -2.853954	 -0.458728	 -0.875714
H	 -2.853954	 -0.458728	 0.875714
H	 -2.614037	 1.049773	 -0.000000

7 13 16 19 F
