%nprocshared=4
%mem=2GB
#HF/cc-pVTZ nosymm scf=tight opt=ModRedundant

Mol

0 1
H	 0.083144	 -2.547901	 -0.315416
C	 -0.794875	 -1.903917	 -0.391684
N	 -0.537714	 -0.645117	 0.000000
O	 -1.841264	 -2.314433	 -0.783173
C	 -1.522613	 0.412524	 0.000000
H	 0.382302	 -0.442142	 0.303900
H	 -2.150256	 0.356137	 -0.880771
H	 -1.005621	 1.357208	 0.000000
H	 -2.150256	 0.356137	 0.880771

6 3 5 7 F
