%nprocshared=1
%mem=2GB
#HF/6-31G* nosymm scf=tight 

Mol

0 1
H	 2.591676	 2.013956	 0.335017
O	 3.341076	 1.666752	 -0.126416
C	 3.569581	 0.339145	 0.272707
C	 2.539767	 -0.640285	 -0.279495
H	 4.553106	 0.084646	 -0.100901
H	 3.608576	 0.269204	 1.359154
C	 1.115811	 -0.397273	 0.226630
H	 2.556196	 -0.582511	 -1.364741
H	 2.852081	 -1.648031	 -0.010655
C	 0.301634	 -1.688808	 0.344407
H	 0.610312	 0.290247	 -0.445791
H	 1.156064	 0.089657	 1.201114
C	 -1.104950	 -1.512325	 0.928116
H	 0.228391	 -2.156459	 -0.635790
H	 0.849941	 -2.387462	 0.972851
C	 -2.069643	 -0.707568	 0.052781
H	 -1.531130	 -2.499079	 1.096944
H	 -1.031094	 -1.043911	 1.908407
C	 -3.487014	 -0.648539	 0.626377
H	 -2.104030	 -1.148338	 -0.942533
H	 -1.700507	 0.307064	 -0.075921
C	 -4.450450	 0.159570	 -0.242194
H	 -3.869903	 -1.659948	 0.744426
H	 -3.453438	 -0.217325	 1.624782
H	 -4.531112	 -0.265999	 -1.238492
H	 -5.446306	 0.181062	 0.189596
H	 -4.114535	 1.187216	 -0.349281

14 10 7 4 F
14 10 13 16 F
8 4 3 2 F
10 13 16 20 F
20 16 19 22 F
4 3 2 1 F
