%nprocshared=1
%mem=2GB
#HF/6-31G* nosymm scf=tight opt=ModRedundant

Mol

0 1
O	 -2.821601	 1.309235	 -0.001213
C	 -2.668563	 0.129746	 -0.000350
C	 -3.801572	 -0.864014	 -0.000442
O	 -1.481751	 -0.454642	 0.000584
H	 -4.417280	 -0.689587	 -0.874708
H	 -3.443784	 -1.883046	 -0.000565
H	 -4.417179	 -0.689832	 0.873954
C	 -0.334255	 0.388708	 0.000906
C	 0.891947	 -0.504646	 0.000751
H	 -0.365390	 1.025305	 -0.873475
H	 -0.365484	 1.024911	 0.875569
C	 2.191998	 0.301789	 0.000897
H	 0.855148	 -1.151283	 -0.871571
H	 0.855132	 -1.151660	 0.872805
C	 2.189941	 1.435418	 1.028130
H	 3.031519	 -0.361493	 0.201764
H	 2.362183	 0.717737	 -0.990620
C	 3.488976	 2.240013	 1.029161
H	 2.020352	 1.021483	 2.019579
H	 1.352984	 2.100485	 0.827483
H	 4.341659	 1.607983	 1.260431
H	 3.457282	 3.035412	 1.767112
H	 3.669104	 2.695363	 0.059512

16 12 9 13 F
