%nprocshared=1
%mem=2GB
#HF/6-31G* nosymm scf=tight 

Mol

0 1
H	 2.591676	 2.013956	 0.335017
O	 3.341076	 1.666752	 -0.126416
C	 3.569581	 0.339145	 0.272707
C	 2.923872	 -0.006102	 1.610090
H	 3.146534	 -0.279848	 -0.508032
H	 4.638190	 0.130200	 0.307311
C	 3.486480	 0.782879	 2.794932
H	 1.853773	 0.167239	 1.531311
H	 3.060478	 -1.071570	 1.787522
C	 2.856332	 0.375048	 4.129625
H	 3.324694	 1.843926	 2.626498
H	 4.565114	 0.634729	 2.849168
C	 3.445084	 1.074713	 5.360146
H	 1.784097	 0.558340	 4.090111
H	 2.975337	 -0.699156	 4.254619
C	 3.185053	 2.582002	 5.430444
H	 3.027527	 0.609037	 6.250431
H	 4.517827	 0.891508	 5.398822
C	 3.698988	 3.215847	 6.724874
H	 2.115374	 2.766308	 5.341399
H	 3.651783	 3.082149	 4.585270
C	 3.446421	 4.721498	 6.794782
H	 3.225380	 2.730955	 7.575793
H	 4.765804	 3.024367	 6.820389
H	 2.384800	 4.944149	 6.734690
H	 3.819908	 5.140680	 7.723991
H	 3.938521	 5.240407	 5.976897

14 10 7 4 F
14 10 13 16 F
10 7 4 8 F
8 4 3 2 F
10 13 16 20 F
20 16 19 22 F
