%nprocshared=4
%mem=2GB
#HF/cc-pVTZ nosymm scf=tight opt=ModRedundant

Mol

0 1
O	 -0.491523	 1.914689	 -3.467234
C	 -0.866398	 1.495379	 -2.420774
C	 -0.291295	 0.219404	 -1.838371
C	 -1.916294	 2.216216	 -1.609058
C	 1.017053	 0.497669	 -1.087615
H	 -0.101248	 -0.459323	 -2.660151
H	 -1.008222	 -0.245805	 -1.170192
C	 1.630207	 -0.772146	 -0.501001
H	 1.708221	 0.970765	 -1.773687
H	 0.835302	 1.209183	 -0.285733
C	 2.907848	 -0.545876	 0.309149
H	 1.835309	 -1.473763	 -1.305765
H	 0.894882	 -1.250940	 0.139825
C	 3.373802	 0.906639	 0.372125
H	 3.699140	 -1.146831	 -0.127906
H	 2.764321	 -0.923458	 1.318191
H	 3.519798	 1.311927	 -0.623875
H	 4.316899	 0.983758	 0.900700
H	 2.661122	 1.540651	 0.885346
H	 -2.820335	 1.616243	 -1.581853
H	 -2.134278	 3.176152	 -2.051297
H	 -1.586479	 2.344830	 -0.584231

12 8 11 15 F
