%nprocshared=4
%mem=2GB
#HF/cc-pVTZ nosymm scf=tight opt=ModRedundant

Mol

0 1
H	 -0.744857	 -1.290941	 0.755464
N	 -0.625934	 -0.663929	 -0.000707
C	 -1.628748	 -0.643469	 -1.039476
C	 0.468494	 0.129045	 -0.002160
H	 -1.709947	 -1.611413	 -1.519560
H	 -1.339797	 0.087113	 -1.775581
H	 -2.598113	 -0.372205	 -0.638495
C	 1.785715	 -0.615093	 0.000603
O	 0.413285	 1.323206	 0.000532
H	 1.866994	 -1.243310	 -0.878792
H	 2.591506	 0.100263	 0.006422
H	 1.860358	 -1.250360	 0.875522

3 2 4 9 F
