%nprocshared=4
%mem=2GB
#HF/6-31G* nosymm scf=tight opt=ModRedundant

Mol

0 1
H	 -5.146681	 -3.347780	 -2.424718
O	 -5.567917	 -4.038663	 -1.934502
C	 -4.594921	 -4.889040	 -1.382965
C	 -3.842052	 -4.262830	 -0.214301
H	 -5.129378	 -5.767493	 -1.044805
H	 -3.893069	 -5.213343	 -2.150435
C	 -3.011324	 -3.035020	 -0.595407
H	 -4.561531	 -3.992467	 0.554217
H	 -3.189856	 -5.021825	 0.214573
C	 -2.225434	 -2.462405	 0.587517
H	 -3.669051	 -2.269961	 -0.998450
H	 -2.315436	 -3.301436	 -1.391085
C	 -1.309753	 -1.282496	 0.241564
H	 -2.922008	 -2.160636	 1.367625
H	 -1.617019	 -3.256306	 1.015596
C	 -2.037799	 -0.007733	 -0.193645
H	 -0.702383	 -1.053820	 1.114849
H	 -0.613540	 -1.584777	 -0.539301
C	 -3.489788	 0.042957	 0.286558
H	 -2.017067	 0.064384	 -1.280144
H	 -1.513726	 0.868678	 0.179924
C	 -4.216917	 1.317354	 -0.141063
H	 -4.025645	 -0.823308	 -0.095450
H	 -3.513059	 -0.038752	 1.371301
H	 -4.239342	 1.411634	 -1.223113
H	 -5.243387	 1.322503	 0.212445
H	 -3.726170	 2.201406	 0.256408

10 13 16 20 F
