%nprocshared=4
%mem=2GB
#HF/cc-pVTZ nosymm scf=tight opt=ModRedundant

Mol

0 1
H	 -1.544511	 0.861424	 -2.852122
O	 -1.832103	 0.493980	 -2.036539
C	 -0.947566	 0.843930	 -1.009277
C	 0.351817	 0.069418	 -1.106882
H	 -0.737170	 1.908760	 -1.009338
H	 -1.438294	 0.607095	 -0.076122
O	 1.172093	 0.457955	 -0.054438
H	 0.835263	 0.272705	 -2.063883
H	 0.142890	 -0.997511	 -1.067045
C	 2.395478	 -0.199028	 -0.000366
H	 2.505946	 -0.901710	 -0.823354
H	 3.174616	 0.545641	 -0.071768
H	 2.513730	 -0.742241	 0.934223

4 7 10 13 F
