%nprocshared=4
%mem=2GB
#HF/cc-pVTZ nosymm scf=tight opt=ModRedundant

Mol

0 1
H	 3.721907	 -0.933076	 -0.066039
O	 2.824271	 -1.154299	 0.131461
C	 2.076458	 -0.067370	 -0.038225
C	 0.626018	 -0.337582	 0.258241
O	 2.538288	 0.965419	 -0.381593
C	 -0.267326	 0.883135	 0.076490
H	 0.325620	 -1.161483	 -0.378003
H	 0.574537	 -0.713685	 1.275261
C	 -1.726822	 0.642622	 0.463839
H	 -0.210803	 1.217591	 -0.953497
H	 0.129920	 1.693110	 0.675679
C	 -2.635637	 1.866031	 0.357227
H	 -1.748040	 0.285315	 1.489089
H	 -2.135166	 -0.162263	 -0.143501
C	 -4.051287	 1.593199	 0.855194
H	 -2.203458	 2.682004	 0.930327
H	 -2.685101	 2.207660	 -0.671753
H	 -4.674064	 2.476221	 0.770902
H	 -4.047686	 1.288553	 1.896288
H	 -4.521527	 0.801096	 0.281955

12 9 6 10 F
