%nprocshared=4
%mem=2GB
#HF/6-31G* nosymm scf=tight opt=ModRedundant

Mol

0 1
H	 -2.172150	 0.880146	 0.502514
C	 -2.018062	 -0.000025	 -0.114509
O	 -0.774054	 0.001095	 -0.743181
H	 -2.760490	 0.003458	 -0.901350
H	 -2.173624	 -0.884374	 0.496163
C	 0.266530	 -0.817983	 -0.240360
C	 1.433248	 -0.540584	 -1.185786
C	 0.645021	 -0.415519	 1.188611
C	 -0.116629	 -2.299958	 -0.304031
H	 1.689683	 0.512584	 -1.163217
H	 1.159249	 -0.798514	 -2.202531
H	 2.309001	 -1.116991	 -0.905656
H	 0.845024	 0.649646	 1.238135
H	 1.537756	 -0.945449	 1.504520
H	 -0.139143	 -0.648872	 1.900783
H	 -0.451261	 -2.558726	 -1.303087
H	 0.739440	 -2.920373	 -0.059566
H	 -0.907244	 -2.548666	 0.395757

6 3 2 5 F
