%nprocshared=4
%mem=2GB
#HF/cc-pVTZ nosymm scf=tight opt=ModRedundant

Mol

0 1
H	 3.318879	 -3.151385	 -2.157260
C	 3.126472	 -2.121141	 -2.433744
C	 1.801951	 -1.633602	 -1.856446
H	 3.953207	 -1.521038	 -2.069600
H	 3.128076	 -2.063632	 -3.517483
C	 1.491892	 -0.187046	 -2.235009
H	 1.826280	 -1.727438	 -0.776843
H	 0.998484	 -2.276115	 -2.209210
C	 0.168678	 0.326480	 -1.676187
H	 2.292704	 0.456679	 -1.892743
H	 1.459844	 -0.103505	 -3.317495
C	 0.166485	 0.574257	 -0.177158
H	 -0.083105	 1.277038	 -2.139664
H	 -0.646179	 -0.346894	 -1.925370
C	 -1.180025	 0.697761	 0.509157
O	 1.177304	 0.688997	 0.437947
C	 -2.285431	 -0.137488	 -0.145671
H	 -1.447360	 1.745713	 0.496200
H	 -1.065514	 0.394096	 1.546399
C	 -3.646545	 0.082747	 0.508954
H	 -2.348635	 0.118247	 -1.199806
H	 -2.034895	 -1.192387	 -0.096473
C	 -4.757412	 -0.737227	 -0.138149
H	 -3.900211	 1.137405	 0.459735
H	 -3.580878	 -0.166775	 1.564416
H	 -4.867876	 -0.486707	 -1.187777
H	 -4.549650	 -1.800049	 -0.072540
H	 -5.709585	 -0.556397	 0.346597

16 12 15 17 F
