%nprocshared=4
%mem=2GB
#HF/6-31G* nosymm scf=tight opt=ModRedundant

Mol

0 1
H	 -2.698709	 -0.000305	 0.034435
C	 -1.693833	 0.000034	 0.434417
O	 -0.828952	 -0.000968	 -0.659236
H	 -1.574200	 0.882896	 1.055746
H	 -1.574147	 -0.881698	 1.057355
C	 -1.322424	 0.420967	 -1.909420
C	 -2.422493	 -0.494187	 -2.443517
C	 -1.739178	 1.890414	 -1.908695
H	 -0.462123	 0.320456	 -2.560428
H	 -2.111552	 -1.531545	 -2.382252
H	 -2.626826	 -0.260788	 -3.483714
H	 -3.352638	 -0.381924	 -1.895438
H	 -0.955633	 2.503449	 -1.476604
H	 -1.913103	 2.227297	 -2.925909
H	 -2.653787	 2.057958	 -1.349000

6 3 2 1 F
