%nprocshared=4
%mem=2GB
#HF/6-31G* nosymm scf=tight opt=ModRedundant

Mol

0 1
O	 0.577080	 -0.216176	 0.176149
C	 1.705091	 0.115954	 0.001797
C	 2.177609	 1.529165	 -0.237847
O	 2.721346	 -0.737485	 -0.000216
C	 1.047121	 2.553671	 -0.243352
H	 2.913964	 1.759433	 0.527314
H	 2.718980	 1.535113	 -1.179972
C	 1.553925	 3.975912	 -0.487158
H	 0.518250	 2.507652	 0.703414
H	 0.323651	 2.283827	 -1.006296
C	 0.433029	 5.016772	 -0.494993
H	 2.281649	 4.239232	 0.279051
H	 2.085369	 4.014972	 -1.436854
C	 0.939884	 6.437473	 -0.739854
H	 -0.097230	 4.980799	 0.454044
H	 -0.294276	 4.755592	 -1.260467
H	 1.643990	 6.740983	 0.029776
H	 0.122425	 7.151765	 -0.739956
H	 1.445820	 6.513866	 -1.698240
C	 4.024888	 -0.184556	 -0.001949
H	 4.179030	 0.422472	 -0.882452
H	 4.701782	 -1.024608	 -0.003642
H	 4.181981	 0.421185	 0.878906

1 2 4 20 F
