%nprocshared=4
%mem=2GB
#HF/cc-pVTZ nosymm scf=tight opt=ModRedundant

Mol

0 1
O	 0.267439	 0.950022	 -0.865143
C	 0.485107	 0.171416	 -0.000134
C	 1.606966	 -0.836201	 0.000174
O	 -0.241942	 0.082972	 1.099940
C	 2.988788	 -0.202529	 -0.000115
H	 1.465110	 -1.474645	 -0.864821
H	 1.465209	 -1.474077	 0.865596
H	 3.131767	 0.419673	 -0.873407
H	 3.750876	 -0.972315	 0.000098
H	 3.131883	 0.420264	 0.872742
C	 -1.339803	 0.973314	 1.242342
C	 -2.006072	 0.676824	 2.565470
H	 -2.020016	 0.830204	 0.414588
H	 -0.977193	 1.990673	 1.199701
H	 -2.364084	 -0.344554	 2.596885
H	 -2.850881	 1.340689	 2.706233
H	 -1.315368	 0.822580	 3.386478

4 2 3 6 F
