%nprocshared=4
%mem=2GB
#HF/cc-pVTZ nosymm scf=tight opt=ModRedundant

Mol

0 1
H	 -2.644180	 -0.653737	 1.272255
C	 -2.092774	 -0.380414	 0.391915
O	 -0.808934	 -0.154049	 0.752536
F	 -2.163230	 -1.351640	 -0.507133
F	 -2.627232	 0.691260	 -0.169301
C	 -0.016200	 0.607501	 -0.078677
C	 -0.776138	 1.897042	 -0.380097
Cl	 0.344630	 -0.253277	 -1.586789
H	 0.923833	 0.870958	 0.373624
F	 -0.067418	 2.675369	 -1.157880
F	 -0.992554	 2.537876	 0.744096
F	 -1.927561	 1.671127	 -0.950571

6 3 2 4 F
