%nprocshared=4
%mem=2GB
#HF/cc-pVTZ nosymm scf=tight opt=ModRedundant

Mol

0 1
O	 0.503949	 0.386457	 -0.975066
C	 1.121787	 0.124983	 0.000110
C	 0.838504	 0.651986	 1.383397
O	 2.167739	 -0.685178	 -0.000678
C	 -0.356272	 1.592282	 1.448778
H	 0.698523	 -0.207061	 2.031412
H	 1.742614	 1.140425	 1.731928
C	 -0.614903	 2.106071	 2.862087
H	 -1.236445	 1.079317	 1.077695
H	 -0.191180	 2.428359	 0.778506
C	 -1.811695	 3.047659	 2.939484
H	 -0.776281	 1.263727	 3.529660
H	 0.270482	 2.618919	 3.228579
H	 -2.719724	 2.552890	 2.611961
H	 -1.971463	 3.396178	 3.953233
H	 -1.665341	 3.917962	 2.308822
C	 3.449556	 -0.089977	 -0.000570
H	 3.585694	 0.522473	 -0.879546
H	 4.155805	 -0.904274	 -0.001389
H	 3.586173	 0.521118	 0.879272

1 2 4 17 F
