%nprocshared=4
%mem=2GB
#HF/cc-pVTZ nosymm scf=tight opt=ModRedundant

Mol

0 1
O	 -0.600420	 -0.016102	 -0.434086
C	 0.485107	 0.171416	 -0.000134
C	 1.606966	 -0.836201	 0.000174
O	 0.861889	 1.311786	 0.551390
C	 2.988788	 -0.202529	 -0.000115
H	 1.465110	 -1.474645	 -0.864821
H	 1.465209	 -1.474077	 0.865596
H	 3.131767	 0.419673	 -0.873407
H	 3.750876	 -0.972315	 0.000098
H	 3.131883	 0.420264	 0.872742
C	 -0.093028	 2.361257	 0.622315
C	 0.569859	 3.544420	 1.288043
H	 -0.951647	 2.019938	 1.183227
H	 -0.426378	 2.603457	 -0.376955
H	 0.900247	 3.289788	 2.287232
H	 -0.133549	 4.365696	 1.358438
H	 1.428461	 3.876684	 0.718154

4 2 3 6 F
