%nprocshared=1
%mem=2GB
#HF/6-31G* nosymm scf=tight opt=ModRedundant

Mol

0 1
O	 -2.042549	 -1.228399	 -0.269030
C	 -1.653912	 -0.146171	 0.050137
C	 -0.332303	 0.024011	 0.778412
C	 -2.438579	 1.106236	 -0.272369
C	 0.789465	 -0.750578	 0.068821
H	 -0.068450	 1.075605	 0.848514
H	 -0.458948	 -0.361130	 1.784170
C	 2.133867	 -0.630817	 0.788036
H	 0.896210	 -0.390169	 -0.952841
H	 0.500001	 -1.795011	 0.001652
C	 3.249243	 -1.407465	 0.089495
H	 2.413292	 0.418069	 0.860040
H	 2.026781	 -0.990432	 1.808712
H	 3.403555	 -1.047395	 -0.923713
H	 3.012534	 -2.465797	 0.031655
H	 4.189251	 -1.307024	 0.622714
H	 -3.277823	 0.863061	 -0.908988
H	 -1.806773	 1.843019	 -0.759671
H	 -2.802853	 1.554979	 0.648059

5 3 2 4 F
