%nprocshared=4
%mem=2GB
#HF/cc-pVTZ nosymm scf=tight opt=ModRedundant

Mol

0 1
H	 -0.795772	 -2.525162	 0.023769
N	 -0.060930	 -1.859629	 -0.088682
C	 -0.561396	 -0.500007	 0.035200
H	 0.338690	 -2.011541	 -0.991213
C	 0.575129	 0.507849	 -0.048832
H	 -1.045871	 -0.411163	 1.001952
H	 -1.313878	 -0.253674	 -0.715470
C	 1.951750	 -0.141983	 0.035101
H	 0.478254	 1.061643	 -0.975981
H	 0.467676	 1.231891	 0.755499
H	 2.101550	 -0.848142	 -0.774949
H	 2.738260	 0.600794	 -0.026526
H	 2.078939	 -0.679792	 0.968824

6 3 5 9 F
