%nprocshared=4
%mem=2GB
#HF/cc-pVTZ nosymm scf=tight opt=ModRedundant

Mol

0 1
O	 -2.071633	 -1.227563	 -0.223463
C	 -1.652164	 -0.152425	 0.058082
C	 -0.327811	 0.006324	 0.778296
C	 -2.402515	 1.108629	 -0.298924
C	 0.843231	 -0.001575	 -0.211665
H	 -0.319484	 0.928173	 1.350354
H	 -0.227804	 -0.823091	 1.466705
C	 2.030742	 -0.819679	 0.287088
H	 1.167816	 1.017590	 -0.405679
H	 0.495243	 -0.401662	 -1.157815
C	 3.192994	 -0.840781	 -0.699768
H	 2.371103	 -0.418367	 1.237682
H	 1.705124	 -1.836974	 0.483613
H	 3.564042	 0.160815	 -0.889937
H	 2.890792	 -1.266649	 -1.650388
H	 4.017812	 -1.431945	 -0.319503
H	 -3.240910	 0.874416	 -0.936711
H	 -1.747554	 1.818823	 -0.790984
H	 -2.760419	 1.579708	 0.610998

9 5 3 2 F
