%nprocshared=1
%mem=2GB
#HF/6-31G* nosymm scf=tight opt=ModRedundant

Mol

0 1
H	 -3.892951	 0.981613	 -0.358725
C	 -3.196921	 0.361773	 0.172313
C	 -2.076860	 -0.007332	 -0.404944
H	 -3.439953	 0.057760	 1.173024
O	 -0.891863	 0.599261	 -0.131654
H	 -2.026003	 -0.818888	 -1.109207
C	 0.208410	 0.271337	 -0.908643
C	 0.281164	 1.116453	 -2.160353
H	 0.207693	 -0.771659	 -1.205048
H	 1.094982	 0.468340	 -0.324120
F	 1.365940	 0.792147	 -2.848751
F	 -0.765616	 0.921924	 -2.945364
F	 0.344015	 2.402982	 -1.885976

6 3 2 1 F
