%nprocshared=1
%mem=2GB
#HF/6-31G* nosymm scf=tight opt=ModRedundant

Mol

0 1
O	 -1.276010	 1.052711	 -0.768302
C	 -1.204840	 0.067374	 -0.106123
C	 -2.388195	 -0.672128	 0.458071
O	 -0.067104	 -0.527208	 0.221609
H	 -2.388023	 -1.694060	 0.097175
H	 -3.300579	 -0.174919	 0.164318
H	 -2.315377	 -0.706351	 1.539059
C	 0.248570	 -1.798165	 -0.364008
C	 1.188391	 -2.484665	 0.611205
C	 0.864154	 -1.591521	 -1.739145
H	 -0.670122	 -2.358656	 -0.455453
H	 0.717755	 -2.597915	 1.581217
H	 1.455293	 -3.469650	 0.242558
H	 2.098089	 -1.907544	 0.737831
H	 1.126531	 -2.548821	 -2.178179
H	 0.165975	 -1.096205	 -2.401855
H	 1.765222	 -0.991054	 -1.664831

8 4 2 1 F
