%nprocshared=1
%mem=2GB
#HF/6-31G* nosymm scf=tight 

Mol

0 1
H	 -2.805052	 -0.420090	 0.902062
C	 -2.681853	 0.085726	 -0.053507
O	 -1.338273	 0.223604	 -0.386855
H	 -3.150420	 -0.507547	 -0.826561
H	 -3.182526	 1.051571	 0.000332
C	 -0.599664	 0.977001	 0.522044
C	 0.855189	 0.964506	 0.115286
H	 -0.958280	 2.006954	 0.539029
H	 -0.694322	 0.572175	 1.527608
O	 1.392611	 -0.295398	 0.366430
H	 0.934499	 1.215727	 -0.940463
H	 1.392713	 1.724912	 0.683215
C	 2.706965	 -0.449871	 -0.062409
H	 2.756559	 -0.644779	 -1.131878
H	 3.305899	 0.433456	 0.155466
H	 3.125548	 -1.294566	 0.467107

3 6 7 11 F
2 3 6 7 F
