%nprocshared=1
%mem=2GB
#HF/6-31G* nosymm scf=tight opt=ModRedundant

Mol

0 1
H	 1.364315	 -2.651211	 -2.883700
O	 2.240962	 -2.327475	 -3.031200
C	 2.186058	 -1.125148	 -3.756078
C	 1.688220	 0.054057	 -2.927610
H	 3.198336	 -0.936069	 -4.089573
H	 1.569601	 -1.244705	 -4.646284
C	 0.243340	 -0.091166	 -2.443772
H	 2.348454	 0.178392	 -2.073211
H	 1.778372	 0.955130	 -3.532016
C	 -0.244089	 1.131745	 -1.661646
H	 0.163124	 -0.976719	 -1.819491
H	 -0.411130	 -0.251136	 -3.300754
C	 -1.713153	 1.074513	 -1.227002
H	 0.385544	 1.270005	 -0.784553
H	 -0.101920	 2.016427	 -2.278757
C	 -2.037799	 -0.007733	 -0.193645
H	 -1.984611	 2.042855	 -0.811742
H	 -2.342500	 0.935588	 -2.104760
C	 -3.489788	 0.042957	 0.286558
H	 -1.373359	 0.102252	 0.662237
H	 -1.839516	 -0.993004	 -0.608649
C	 -4.216917	 1.317354	 -0.141063
H	 -4.025645	 -0.823308	 -0.095450
H	 -3.513059	 -0.038752	 1.371301
H	 -4.239342	 1.411634	 -1.223113
H	 -5.243387	 1.322503	 0.212445
H	 -3.726170	 2.201406	 0.256408

20 16 19 22 F
