%nprocshared=4
%mem=2GB
#HF/cc-pVTZ nosymm scf=tight opt=ModRedundant

Mol

0 1
H	 2.342730	 0.877684	 -1.045694
C	 2.360424	 0.000000	 -0.411793
C	 1.173749	 0.000000	 0.526870
H	 3.286567	 0.000000	 0.151574
H	 2.342730	 -0.877684	 -1.045694
O	 0.000000	 0.000000	 -0.223739
H	 1.203779	 0.876757	 1.172538
H	 1.203779	 -0.876757	 1.172538
C	 -1.173749	 0.000000	 0.526870
C	 -1.604015	 1.429876	 0.771026
H	 -1.010650	 -0.511676	 1.474540
H	 -1.955203	 -0.543695	 -0.002486
H	 -0.836125	 1.970321	 1.310227
H	 -2.517280	 1.454218	 1.354529
H	 -1.781677	 1.938268	 -0.168360

11 9 6 3 F
