%nprocshared=4
%mem=2GB
#HF/cc-pVTZ nosymm scf=tight opt=ModRedundant

Mol

0 1
O	 -1.278239	 1.034789	 -0.784693
C	 -1.204115	 0.062668	 -0.112312
C	 -2.386398	 -0.667698	 0.460323
O	 -0.068058	 -0.518372	 0.226882
H	 -2.382952	 -1.693172	 0.114333
H	 -3.296656	 -0.175702	 0.158400
H	 -2.312537	 -0.685191	 1.540100
C	 1.169086	 0.037484	 -0.230612
C	 1.374998	 1.317433	 0.554528
C	 1.109159	 0.264077	 -1.730503
H	 1.953770	 -0.667719	 -0.002470
H	 1.406372	 1.113579	 1.617171
H	 2.310352	 1.782504	 0.267240
H	 0.570944	 2.018316	 0.364275
H	 2.040716	 0.696321	 -2.076722
H	 0.954769	 -0.669082	 -2.253978
H	 0.303234	 0.944922	 -1.979936

11 8 4 2 F
