%nprocshared=4
%mem=2GB
#HF/cc-pVTZ nosymm scf=tight opt=ModRedundant

Mol

0 1
O	 -0.661489	 -1.654523	 1.661367
C	 -1.523129	 -1.436538	 0.878753
C	 -2.789244	 -2.244153	 0.783920
O	 -1.481217	 -0.452708	 0.001092
H	 -3.292492	 -2.208695	 1.740771
H	 -3.443818	 -1.877968	 0.009271
H	 -2.525724	 -3.274947	 0.588738
C	 -0.332055	 0.384012	 -0.000250
C	 0.892252	 -0.506059	 -0.000295
H	 -0.360822	 1.020205	 -0.874146
H	 -0.359817	 1.021310	 0.872861
C	 2.188199	 0.299473	 -0.001416
H	 0.857046	 -1.152781	 -0.871031
H	 0.857910	 -1.151798	 0.871202
C	 3.435971	 -0.575584	 0.078992
H	 2.236172	 0.907860	 -0.901161
H	 2.184364	 0.993532	 0.835389
C	 4.731183	 0.229050	 0.079093
H	 3.441835	 -1.268404	 -0.757681
H	 3.389234	 -1.183896	 0.977802
H	 4.823437	 0.822444	 -0.824355
H	 5.596447	 -0.420915	 0.137143
H	 4.770276	 0.907848	 0.924408

16 12 9 13 F
