%nprocshared=1
%mem=2GB
#HF/6-31G* nosymm scf=tight 

Mol

0 1
O	 -1.276010	 1.052711	 -0.768302
C	 -1.204840	 0.067374	 -0.106123
C	 -2.388195	 -0.672128	 0.458071
O	 -0.067104	 -0.527208	 0.221609
H	 -2.388023	 -1.694060	 0.097175
H	 -3.300579	 -0.174919	 0.164318
H	 -2.315377	 -0.706351	 1.539059
C	 0.909521	 0.204853	 0.975410
C	 2.249273	 -0.432279	 0.651812
C	 0.564734	 0.147580	 2.455439
H	 0.890998	 1.229806	 0.635356
H	 2.448784	 -0.384618	 -0.412693
H	 3.046092	 0.087519	 1.173562
H	 2.262147	 -1.473466	 0.955815
H	 1.312830	 0.680452	 3.033726
H	 -0.397467	 0.606664	 2.643559
H	 0.536637	 -0.881709	 2.798633

11 8 4 2 F
