%nprocshared=4
%mem=2GB
#HF/cc-pVTZ nosymm scf=tight opt=ModRedundant

Mol

0 1
H	 2.614283	 2.028610	 0.296620
O	 3.358864	 1.662087	 -0.142800
C	 3.565468	 0.338079	 0.273842
C	 2.825829	 -0.686686	 -0.573199
H	 4.631032	 0.167818	 0.199258
H	 3.293456	 0.223070	 1.321331
C	 1.304328	 -0.598875	 -0.477428
H	 3.134739	 -0.567595	 -1.607389
H	 3.149481	 -1.676062	 -0.258904
C	 0.596930	 -1.663473	 -1.314719
H	 0.981131	 0.386102	 -0.797378
H	 1.002261	 -0.704750	 0.563164
C	 -0.928402	 -1.669228	 -1.198175
H	 0.876572	 -1.540817	 -2.358263
H	 0.967626	 -2.640045	 -1.015789
C	 -1.625907	 -0.440553	 -1.779197
H	 -1.305688	 -2.552732	 -1.705722
H	 -1.207634	 -1.780455	 -0.152798
C	 -3.148501	 -0.538401	 -1.728773
H	 -1.310576	 -0.304791	 -2.811478
H	 -1.314836	 0.452766	 -1.246075
C	 -3.848062	 0.688323	 -2.304669
H	 -3.469239	 -1.423347	 -2.271520
H	 -3.464668	 -0.682550	 -0.699054
H	 -3.577300	 0.841269	 -3.344156
H	 -4.926063	 0.585127	 -2.255977
H	 -3.577254	 1.586115	 -1.758790

4 3 2 1 F
