%nprocshared=1
%mem=2GB
#HF/6-31G* nosymm scf=tight 

Mol

0 1
H	 -0.127094	 7.053262	 1.359990
C	 -1.101874	 6.584630	 1.266661
C	 -0.978591	 5.151231	 0.751544
H	 -1.574905	 6.607771	 2.243926
H	 -1.699367	 7.194826	 0.594751
C	 -2.337000	 4.462711	 0.601606
H	 -0.355822	 4.578580	 1.431125
H	 -0.470404	 5.157776	 -0.211469
C	 -2.246719	 3.032030	 0.070318
H	 -2.846707	 4.451597	 1.558537
H	 -2.955594	 5.042035	 -0.080132
C	 -1.669635	 2.031013	 1.060360
H	 -3.241478	 2.672961	 -0.189094
H	 -1.671398	 2.995556	 -0.852098
C	 -1.181045	 0.701995	 0.511084
O	 -1.616576	 2.267210	 2.229890
C	 -2.285934	 -0.139295	 -0.145128
H	 -0.739595	 0.160166	 1.338887
H	 -0.395853	 0.896370	 -0.217186
C	 -3.651768	 0.085446	 0.506485
H	 -2.346596	 0.110469	 -1.202272
H	 -2.034737	 -1.195320	 -0.088721
C	 -4.759797	 -0.746382	 -0.137905
H	 -3.908762	 1.140117	 0.445781
H	 -3.588286	 -0.154158	 1.565709
H	 -4.868882	 -0.505166	 -1.191300
H	 -4.548009	 -1.809175	 -0.062213
H	 -5.715422	 -0.564821	 0.343442

10 6 3 2 F
16 12 15 17 F
