%nprocshared=1
%mem=2GB
#HF/6-31G* nosymm scf=tight opt=ModRedundant

Mol

0 1
H	 -2.708833	 2.174416	 -1.434537
C	 -2.931382	 1.100222	 -1.448764
C	 -1.915821	 0.248473	 -2.166935
O	 -3.913669	 0.686821	 -0.923443
C	 -0.484381	 0.494762	 -1.670372
H	 -2.202386	 -0.791042	 -2.057395
H	 -1.976507	 0.501872	 -3.224650
C	 -0.252658	 0.041456	 -0.226725
H	 0.202681	 -0.029626	 -2.327827
H	 -0.246013	 1.552997	 -1.765641
C	 1.180775	 0.282413	 0.250794
H	 -0.490075	 -1.017117	 -0.143642
H	 -0.943290	 0.557537	 0.437524
C	 2.148627	 -0.814315	 -0.201312
H	 1.516199	 1.249228	 -0.115937
H	 1.192670	 0.346017	 1.338083
C	 3.580890	 -0.659131	 0.322722
H	 2.166869	 -0.852443	 -1.289387
H	 1.762857	 -1.776509	 0.128956
C	 4.324889	 0.564933	 -0.213704
H	 4.142010	 -1.551473	 0.056605
H	 3.564836	 -0.624694	 1.410140
H	 4.342616	 0.565491	 -1.300421
H	 3.866655	 1.493402	 0.110242
H	 5.353900	 0.572371	 0.132816

12 8 11 14 F
