%nprocshared=4
%mem=2GB
#HF/cc-pVTZ nosymm scf=tight opt=ModRedundant

Mol

0 1
O	 3.219313	 0.959291	 -0.614106
C	 2.698710	 0.058177	 -0.050237
C	 1.246364	 -0.005813	 0.348416
O	 3.344101	 -1.038700	 0.312317
C	 0.453207	 1.232821	 -0.049003
H	 0.839270	 -0.907818	 -0.092281
H	 1.216683	 -0.160521	 1.422434
C	 -0.998367	 1.217982	 0.432195
H	 0.481498	 1.345443	 -1.127236
H	 0.951413	 2.105557	 0.354893
C	 -1.882951	 0.151251	 -0.211235
H	 -1.429490	 2.193659	 0.228843
H	 -1.019755	 1.099323	 1.513279
C	 -1.644975	 0.004471	 -1.711772
H	 -1.700530	 -0.803976	 0.275730
H	 -2.930677	 0.383505	 -0.044310
C	 -2.527614	 -1.054387	 -2.366403
H	 -0.600615	 -0.242387	 -1.887024
H	 -1.815660	 0.962311	 -2.197851
C	 -2.282779	 -1.196388	 -3.864958
H	 -2.358018	 -2.012094	 -1.881888
H	 -3.571849	 -0.807619	 -2.194547
H	 -2.924662	 -1.954947	 -4.298037
H	 -1.254895	 -1.477650	 -4.068562
H	 -2.477352	 -0.263385	 -4.383471
C	 4.720529	 -1.114346	 0.001449
H	 4.874321	 -1.055557	 -1.065852
H	 5.057824	 -2.067950	 0.373977
H	 5.264321	 -0.313596	 0.480350

15 11 8 5 F
