%nprocshared=1
%mem=2GB
#HF/6-31G* nosymm scf=tight 

Mol

0 1
H	 0.301643	 -2.350525	 -4.486987
O	 1.244086	 -2.428410	 -4.515375
C	 1.829208	 -1.350216	 -3.830405
C	 1.679109	 -1.447381	 -2.316220
H	 2.878525	 -1.367712	 -4.095548
H	 1.421367	 -0.405341	 -4.187693
C	 0.229424	 -1.383737	 -1.829158
H	 2.135529	 -2.375946	 -1.983331
H	 2.247756	 -0.635214	 -1.866338
C	 0.115918	 -1.429151	 -0.302766
H	 -0.328404	 -2.210917	 -2.259236
H	 -0.235521	 -0.468047	 -2.194777
C	 -1.309753	 -1.282496	 0.241564
H	 0.545766	 -2.360836	 0.060610
H	 0.727126	 -0.631179	 0.113606
C	 -2.037799	 -0.007733	 -0.193645
H	 -1.890610	 -2.142323	 -0.085726
H	 -1.285946	 -1.330893	 1.329189
C	 -3.489788	 0.042957	 0.286558
H	 -2.017067	 0.064384	 -1.280144
H	 -1.513726	 0.868678	 0.179924
C	 -4.216917	 1.317354	 -0.141063
H	 -4.025645	 -0.823308	 -0.095450
H	 -3.513059	 -0.038752	 1.371301
H	 -4.239342	 1.411634	 -1.223113
H	 -5.243387	 1.322503	 0.212445
H	 -3.726170	 2.201406	 0.256408

14 10 7 4 F
10 7 4 8 F
8 4 3 2 F
10 13 16 20 F
20 16 19 22 F
4 3 2 1 F
