%nprocshared=4
%mem=2GB
#HF/cc-pVTZ nosymm scf=tight opt=ModRedundant

Mol

0 1
O	 1.830940	 1.184109	 -1.273154
C	 0.781622	 1.719742	 -1.387478
C	 -0.538702	 1.169435	 -0.912560
O	 0.630629	 2.901797	 -1.962250
C	 -0.498686	 0.616293	 0.504746
H	 -1.269531	 1.966407	 -1.002969
H	 -0.843144	 0.408043	 -1.623221
C	 0.053312	 1.626024	 1.506624
H	 0.104110	 -0.284642	 0.519793
H	 -1.497497	 0.314216	 0.798713
C	 1.563178	 1.816772	 1.395317
H	 -0.439388	 2.585248	 1.363843
H	 -0.192836	 1.306451	 2.516833
C	 2.114856	 2.826292	 2.396282
H	 1.810074	 2.136889	 0.386989
H	 2.056398	 0.859620	 1.539381
H	 1.665521	 3.803716	 2.254947
H	 3.187728	 2.937796	 2.290238
H	 1.914145	 2.516157	 3.416461
C	 1.774850	 3.725117	 -2.063383
H	 2.168391	 3.953019	 -1.083894
H	 1.449161	 4.628457	 -2.553025
H	 2.542901	 3.240436	 -2.647673

1 2 4 20 F
