%nprocshared=4
%mem=2GB
#HF/cc-pVTZ nosymm scf=tight opt=ModRedundant

Mol

0 1
H	 -3.436473	 1.252944	 -1.023892
O	 -3.458596	 0.315260	 -0.960865
C	 -3.176635	 -0.080824	 0.355601
C	 -1.763371	 0.265266	 0.799691
H	 -3.321825	 -1.153438	 0.379502
H	 -3.895468	 0.357385	 1.043382
C	 -1.017273	 1.177600	 -0.169487
H	 -1.806068	 0.730517	 1.783349
H	 -1.212901	 -0.663703	 0.927704
C	 0.386404	 1.541399	 0.307283
H	 -1.594639	 2.082222	 -0.325123
H	 -0.952889	 0.687211	 -1.137929
C	 1.129544	 2.450541	 -0.669576
H	 0.315072	 2.020719	 1.278907
H	 0.963882	 0.631575	 0.457606
C	 2.570624	 2.778243	 -0.274928
H	 0.572810	 3.376860	 -0.791353
H	 1.140385	 1.974555	 -1.646275
C	 2.709872	 3.623805	 0.988709
H	 3.040183	 3.306256	 -1.099241
H	 3.127881	 1.853123	 -0.152300
H	 2.157433	 4.553624	 0.897472
H	 3.748693	 3.874673	 1.170805
H	 2.342381	 3.105791	 1.866329

7 4 3 2 F
