%nprocshared=1
%mem=2GB
#HF/6-31G* nosymm scf=tight 

Mol

0 1
H	 -3.197786	 1.823716	 0.210183
C	 -3.237963	 0.950677	 -0.452998
C	 -2.231800	 0.956301	 -1.575591
O	 -4.034379	 0.090296	 -0.260084
C	 -0.797957	 1.189655	 -1.079712
H	 -2.318925	 0.021862	 -2.117756
H	 -2.512276	 1.762439	 -2.252444
C	 -0.252658	 0.041456	 -0.226725
H	 -0.154974	 1.334841	 -1.942717
H	 -0.758339	 2.118780	 -0.513217
C	 1.180775	 0.282413	 0.250794
H	 -0.293363	 -0.880507	 -0.803071
H	 -0.896577	 -0.114995	 0.636658
C	 2.148627	 -0.814315	 -0.201312
H	 1.516199	 1.249228	 -0.115937
H	 1.192670	 0.346017	 1.338083
C	 3.580890	 -0.659131	 0.322722
H	 2.166869	 -0.852443	 -1.289387
H	 1.762857	 -1.776509	 0.128956
C	 4.324889	 0.564933	 -0.213704
H	 4.142010	 -1.551473	 0.056605
H	 3.564836	 -0.624694	 1.410140
H	 4.342616	 0.565491	 -1.300421
H	 3.866655	 1.493402	 0.110242
H	 5.353900	 0.572371	 0.132816

6 3 5 8 F
6 3 2 4 F
3 5 8 12 F
8 11 14 18 F
20 17 14 18 F
