%nprocshared=4
%mem=2GB
#HF/cc-pVTZ nosymm scf=tight opt=ModRedundant

Mol

0 1
H	 2.462485	 -2.216993	 0.000000
O	 2.777472	 -1.330706	 0.000000
C	 1.763288	 -0.447523	 0.000000
C	 1.420919	 0.134074	 1.212291
C	 1.072145	 -0.113371	 -1.144998
H	 1.971304	 -0.139891	 2.090457
C	 0.391335	 1.044900	 1.273161
H	 1.314782	 -0.546353	 -2.093129
C	 0.044867	 0.804151	 -1.046901
H	 0.133790	 1.489257	 2.214417
C	 -0.317661	 1.396590	 0.136683
N	 -0.686376	 1.155060	 -2.269582
H	 -1.119022	 2.101937	 0.168742
O	 -0.352736	 0.628545	 -3.278809
O	 -1.565835	 1.942782	 -2.176083

4 3 2 1 F
