%nprocshared=4
%mem=2GB
#HF/cc-pVTZ nosymm scf=tight opt=ModRedundant

Mol

0 1
O	 1.230192	 0.778972	 -1.948527
C	 0.781622	 1.719742	 -1.387478
C	 0.313113	 1.743783	 0.044850
O	 0.630629	 2.901797	 -1.962250
C	 1.285241	 1.094369	 1.019300
H	 0.129959	 2.781188	 0.305032
H	 -0.656221	 1.256942	 0.073487
C	 2.693284	 1.671003	 0.905603
H	 1.309551	 0.025364	 0.840667
H	 0.915824	 1.221477	 2.030569
C	 3.431208	 1.208071	 -0.347246
H	 2.641697	 2.757548	 0.908783
H	 3.271353	 1.392619	 1.783997
C	 4.838291	 1.784740	 -0.461184
H	 2.855197	 1.486446	 -1.225242
H	 3.484757	 0.123046	 -0.350662
H	 4.815742	 2.868984	 -0.494953
H	 5.333300	 1.436747	 -1.360406
H	 5.450406	 1.494480	 0.386341
C	 1.774850	 3.725117	 -2.063383
H	 2.168391	 3.953019	 -1.083894
H	 1.449161	 4.628457	 -2.553025
H	 2.542901	 3.240436	 -2.647673

1 2 4 20 F
