%nprocshared=1
%mem=2GB
#HF/6-31G* nosymm scf=tight 

Mol

0 1
O	 -1.276010	 1.052711	 -0.768302
C	 -1.204840	 0.067374	 -0.106123
C	 -2.388195	 -0.672128	 0.458071
O	 -0.067104	 -0.527208	 0.221609
H	 -2.388023	 -1.694060	 0.097175
H	 -3.300579	 -0.174919	 0.164318
H	 -2.315377	 -0.706351	 1.539059
C	 0.599135	 -0.137972	 1.430967
C	 2.066853	 -0.466651	 1.222734
C	 -0.013462	 -0.871443	 2.613926
H	 0.468203	 0.927048	 1.553836
H	 2.459555	 0.063177	 0.362319
H	 2.642288	 -0.176836	 2.095783
H	 2.202243	 -1.530560	 1.060192
H	 0.501596	 -0.598579	 3.529501
H	 -1.059153	 -0.614374	 2.725384
H	 0.072635	 -1.945089	 2.480218

11 8 4 2 F
