%nprocshared=4
%mem=2GB
#HF/cc-pVTZ nosymm scf=tight opt=ModRedundant

Mol

0 1
O	 1.847685	 1.294399	 -0.000190
C	 1.704209	 0.119472	 -0.000093
C	 0.380337	 -0.600947	 -0.000234
O	 2.715427	 -0.733672	 0.000025
C	 -0.824290	 0.329213	 -0.000115
H	 0.371455	 -1.255476	 -0.865660
H	 0.371410	 -1.255787	 0.864952
C	 -0.457511	 1.754040	 0.404064
H	 -1.577934	 -0.062277	 0.673702
H	 -1.274735	 0.330572	 -0.986212
C	 -1.653158	 2.702125	 0.409537
H	 -0.004025	 1.745337	 1.392763
H	 0.300947	 2.139560	 -0.273693
C	 -1.286733	 4.126059	 0.813958
H	 -2.410935	 2.318546	 1.086883
H	 -2.105898	 2.712857	 -0.577920
H	 -0.862554	 4.152893	 1.812250
H	 -2.157067	 4.771979	 0.807686
H	 -0.555401	 4.550471	 0.134058
C	 4.020999	 -0.192556	 0.000019
H	 4.182809	 0.412891	 -0.879449
H	 4.692590	 -1.035653	 0.000152
H	 4.182726	 0.413087	 0.879368

9 5 3 6 F
