%nprocshared=1
%mem=2GB
#HF/6-31G* nosymm scf=tight 

Mol

0 1
O	 1.944598	 2.798912	 -1.830772
C	 1.429635	 2.385554	 -2.824103
C	 0.148715	 1.571162	 -2.793311
C	 2.026929	 2.649634	 -4.191092
C	 -0.405134	 1.336181	 -1.391074
H	 -0.585013	 2.080542	 -3.416660
H	 0.344073	 0.623698	 -3.293859
C	 -1.694554	 0.513335	 -1.400277
H	 -0.582124	 2.294577	 -0.913287
H	 0.347869	 0.835893	 -0.790369
C	 -2.259874	 0.272531	 0.000494
H	 -2.444161	 1.019026	 -2.007246
H	 -1.510353	 -0.445759	 -1.882228
C	 -3.549786	 -0.549746	 -0.000374
H	 -2.445058	 1.230630	 0.482958
H	 -1.511690	 -0.233717	 0.607890
C	 -4.809590	 0.315458	 -0.000369
H	 -3.560515	 -1.202009	 -0.871156
H	 -3.561123	 -1.202955	 0.869711
H	 -4.844746	 0.956611	 -0.876632
H	 -5.706986	 -0.295590	 -0.001609
H	 -4.845960	 0.954827	 0.877144
H	 1.317888	 3.182410	 -4.818011
H	 2.929250	 3.236138	 -4.087836
H	 2.258400	 1.713330	 -4.690482

9 5 8 12 F
15 11 8 12 F
1 2 3 6 F
9 5 3 6 F
