%nprocshared=1
%mem=2GB
#HF/6-31G* nosymm scf=tight 

Mol

0 1
O	 -2.821601	 1.309235	 -0.001213
C	 -2.668563	 0.129746	 -0.000350
C	 -3.801572	 -0.864014	 -0.000442
O	 -1.481751	 -0.454642	 0.000584
H	 -4.417280	 -0.689587	 -0.874708
H	 -3.443784	 -1.883046	 -0.000565
H	 -4.417179	 -0.689832	 0.873954
C	 -0.334255	 0.388708	 0.000906
C	 0.891947	 -0.504646	 0.000751
H	 -0.365390	 1.025305	 -0.873475
H	 -0.365484	 1.024911	 0.875569
C	 2.191998	 0.301789	 0.000897
H	 0.855148	 -1.151283	 -0.871571
H	 0.855132	 -1.151660	 0.872805
C	 3.206863	 -0.203586	 -1.026222
H	 1.970773	 1.348605	 -0.199901
H	 2.640091	 0.269363	 0.992484
C	 4.504814	 0.602757	 -1.026961
H	 2.760838	 -0.171523	 -2.017740
H	 3.430827	 -1.248898	 -0.825644
H	 4.317439	 1.647483	 -1.258157
H	 5.203446	 0.221066	 -1.764837
H	 4.992628	 0.561737	 -0.057237

13 9 8 10 F
2 4 8 10 F
19 15 12 16 F
1 2 4 8 F
