%nprocshared=1
%mem=2GB
#HF/6-31G* nosymm scf=tight opt=ModRedundant

Mol

0 1
H	 -3.970404	 -0.412742	 -0.842138
C	 -2.918622	 -0.264501	 -0.673130
C	 -2.423919	 1.015918	 -0.475789
C	 -2.062251	 -1.354074	 -0.653332
H	 -3.089158	 1.860062	 -0.491387
C	 -1.071419	 1.205730	 -0.258539
H	 -2.447549	 -2.345885	 -0.806503
C	 -0.708012	 -1.166465	 -0.436042
H	 -0.671006	 2.189317	 -0.103947
C	 -0.209084	 0.115558	 -0.237923
H	 -0.041688	 -2.006746	 -0.419910
C	 1.239129	 0.373821	 0.000060
O	 1.970282	 -0.730723	 0.000018
O	 1.702205	 1.457476	 0.173591
C	 3.377318	 -0.566646	 -0.000065
H	 3.695437	 -0.028981	 -0.881264
H	 3.789299	 -1.563704	 0.000236
H	 3.695516	 -0.028316	 0.880770

10 12 13 15 F
