%nprocshared=4
%mem=2GB
#HF/6-31G* nosymm scf=tight opt=ModRedundant

Mol

0 1
H	 1.136379	 0.211822	 1.465562
C	 1.135357	 0.094285	 0.374742
C	 0.065331	 0.871482	 -0.349150
O	 1.941633	 -0.601957	 -0.151457
C	 0.552419	 1.423284	 -1.696644
H	 -0.280754	 1.665433	 0.302601
H	 -0.767435	 0.190714	 -0.520080
C	 1.632213	 2.496844	 -1.555448
H	 -0.299652	 1.834702	 -2.228357
H	 0.925374	 0.604843	 -2.308772
H	 1.268326	 3.339829	 -0.976234
H	 1.937592	 2.867515	 -2.528414
H	 2.517412	 2.114504	 -1.055820

6 3 2 4 F
