%nprocshared=4
%mem=2GB
#HF/cc-pVTZ nosymm scf=tight opt=ModRedundant

Mol

0 1
O	 1.371313	 1.045657	 0.700935
C	 1.121787	 0.124983	 0.000110
C	 -0.170912	 -0.649867	 -0.000147
O	 1.969101	 -0.353489	 -0.896273
C	 -1.413045	 0.229353	 0.001137
H	 -0.152877	 -1.303435	 -0.866175
H	 -0.152278	 -1.305116	 0.864586
C	 -2.210754	 0.110298	 -1.294160
H	 -1.121060	 1.261507	 0.159069
H	 -2.039998	 -0.037649	 0.844454
C	 -3.456717	 0.989138	 -1.304509
H	 -1.576367	 0.375851	 -2.135751
H	 -2.500349	 -0.926034	 -1.447085
H	 -3.197284	 2.035918	 -1.188181
H	 -4.002609	 0.884503	 -2.234955
H	 -4.128028	 0.724530	 -0.494629
C	 3.226978	 0.281687	 -1.004047
H	 3.107866	 1.319775	 -1.276836
H	 3.762124	 -0.246898	 -1.776112
H	 3.765395	 0.222432	 -0.069799

9 5 3 6 F
