%nprocshared=4
%mem=2GB
#HF/6-31G* nosymm scf=tight opt=ModRedundant

Mol

0 1
H	 -0.918835	 -1.069102	 -0.860973
N	 -0.626943	 -0.667432	 -0.000092
C	 -1.393964	 -0.965282	 1.188050
C	 0.469286	 0.129090	 0.000148
H	 -2.420410	 -0.630417	 1.081843
H	 -0.941703	 -0.449186	 2.019214
H	 -1.394924	 -2.030575	 1.393431
C	 1.788933	 -0.616240	 -0.000037
O	 0.411098	 1.327768	 -0.000049
H	 1.872803	 -1.245775	 -0.880381
H	 2.595421	 0.101576	 0.003713
H	 1.870096	 -1.252171	 0.875943

3 2 4 9 F
