%nprocshared=1
%mem=2GB
#HF/6-31G* nosymm scf=tight opt=ModRedundant

Mol

0 1
O	 -2.159179	 1.524351	 -0.603313
C	 -2.055601	 0.390164	 -0.246486
C	 -0.889235	 -0.467034	 -0.705952
C	 -3.053756	 -0.238676	 0.699886
C	 0.379448	 -0.143569	 0.099626
H	 -0.716384	 -0.252222	 -1.754895
H	 -1.129898	 -1.522144	 -0.611870
C	 1.631333	 -0.777471	 -0.511575
H	 0.482768	 0.934507	 0.149241
H	 0.263088	 -0.495696	 1.123449
C	 2.915987	 -0.544314	 0.291766
H	 1.766672	 -0.399098	 -1.523130
H	 1.471257	 -1.849544	 -0.605828
C	 3.373361	 0.914346	 0.347591
H	 3.708709	 -1.142521	 -0.150311
H	 2.780642	 -0.921148	 1.303579
H	 3.506512	 1.320010	 -0.651625
H	 4.322697	 0.999599	 0.867103
H	 2.660624	 1.545032	 0.868198
H	 -3.597819	 -1.026868	 0.186065
H	 -3.751464	 0.508293	 1.052058
H	 -2.546944	 -0.697467	 1.543958

6 3 5 8 F
