%nprocshared=4
%mem=2GB
#HF/cc-pVTZ nosymm scf=tight opt=ModRedundant

Mol

0 1
H	 -4.506466	 0.742563	 6.085770
C	 -3.578313	 0.211201	 5.909551
C	 -3.257386	 0.141118	 4.420451
H	 -2.793672	 0.727157	 6.452085
H	 -3.678859	 -0.781117	 6.337329
C	 -1.959921	 -0.611103	 4.132843
H	 -3.188150	 1.146738	 4.021864
H	 -4.077488	 -0.347245	 3.899146
C	 -1.616142	 -0.702708	 2.649498
H	 -1.140633	 -0.133482	 4.655790
H	 -2.040974	 -1.620121	 4.526667
C	 -1.158526	 0.603377	 2.022431
H	 -0.803218	 -1.409320	 2.502464
H	 -2.453330	 -1.095263	 2.079818
C	 -1.180025	 0.697761	 0.509157
O	 -0.776965	 1.513784	 2.684886
C	 -2.285431	 -0.137488	 -0.145671
H	 -0.209921	 0.373472	 0.157623
H	 -1.304974	 1.741273	 0.232271
C	 -3.646545	 0.082747	 0.508954
H	 -2.348635	 0.118247	 -1.199806
H	 -2.034895	 -1.192387	 -0.096473
C	 -4.757412	 -0.737227	 -0.138149
H	 -3.900211	 1.137405	 0.459735
H	 -3.580878	 -0.166775	 1.564416
H	 -4.867876	 -0.486707	 -1.187777
H	 -4.549650	 -1.800049	 -0.072540
H	 -5.709585	 -0.556397	 0.346597

16 12 15 17 F
