%nprocshared=4
%mem=2GB
#HF/cc-pVTZ nosymm scf=tight opt=ModRedundant

Mol

0 1
O	 -0.694481	 1.313155	 -0.204815
C	 -0.862519	 0.151932	 -0.046791
C	 -2.171428	 -0.477048	 0.339095
O	 0.085519	 -0.757083	 -0.192238
H	 -2.467997	 -1.191667	 -0.417688
H	 -2.923379	 0.287970	 0.444097
H	 -2.053854	 -1.015120	 1.270901
C	 0.580045	 -1.421733	 0.964553
C	 -0.278216	 -2.613195	 1.335639
H	 0.641642	 -0.717881	 1.779792
H	 1.577296	 -1.735318	 0.694543
H	 0.165336	 -3.131988	 2.177997
H	 -1.274392	 -2.299588	 1.616114
H	 -0.348227	 -3.307295	 0.506835

8 4 2 1 F
