%nprocshared=4
%mem=2GB
#HF/cc-pVTZ nosymm scf=tight opt=ModRedundant

Mol

0 1
H	 -3.056924	 1.980120	 0.212608
C	 -2.396608	 2.153811	 1.059189
O	 -1.062434	 2.020513	 0.698976
H	 -2.544143	 3.163516	 1.413615
H	 -2.667441	 1.461351	 1.854193
C	 -0.718530	 0.758693	 0.228682
C	 0.718529	 0.758687	 -0.228709
H	 -0.837693	 0.016449	 1.017887
H	 -1.358303	 0.470120	 -0.602490
O	 1.401606	 -0.295166	 0.366636
H	 0.748705	 0.673477	 -1.312803
H	 1.176496	 1.708671	 0.046552
C	 2.714315	 -0.441627	 -0.061017
H	 2.765292	 -0.641548	 -1.128869
H	 3.305661	 0.447341	 0.150952
H	 3.143725	 -1.278506	 0.470147

3 6 7 11 F
