%nprocshared=4
%mem=2GB
#HF/cc-pVTZ nosymm scf=tight opt=ModRedundant

Mol

0 1
O	 1.466480	 3.545772	 1.691514
C	 0.690107	 3.530186	 2.589908
C	 -0.577366	 2.700812	 2.551421
C	 0.918530	 4.345048	 3.842923
C	 -0.767663	 1.898914	 1.271743
H	 -0.565920	 2.045044	 3.419122
H	 -1.415186	 3.375655	 2.711581
C	 -2.055769	 1.080471	 1.278379
H	 0.084583	 1.243549	 1.132864
H	 -0.765296	 2.575381	 0.424677
C	 -2.258482	 0.271340	 0.000669
H	 -2.052248	 0.406086	 2.131882
H	 -2.906008	 1.744011	 1.420047
C	 -3.544441	 -0.550271	 -0.000253
H	 -1.409199	 -0.392414	 -0.141678
H	 -2.262933	 0.944664	 -0.852995
C	 -4.804551	 0.308747	 0.000556
H	 -3.553737	 -1.201524	 -0.870151
H	 -3.553831	 -1.203282	 0.868313
H	 -4.842050	 0.949078	 -0.874436
H	 -5.698404	 -0.304480	 -0.000254
H	 -4.842277	 0.947103	 0.876982
H	 0.953192	 3.695353	 4.710530
H	 1.845557	 4.891159	 3.760614
H	 0.098345	 5.038563	 3.992509

15 11 14 18 F
