%nprocshared=1
%mem=2GB
#HF/6-31G* nosymm scf=tight 

Mol

0 1
O	 0.625848	 1.349995	 -0.000749
C	 0.486307	 0.169203	 0.000779
C	 1.608116	 -0.841643	 0.000302
O	 -0.698257	 -0.426125	 0.001050
C	 2.990107	 -0.200498	 -0.000684
H	 1.468623	 -1.481519	 -0.865924
H	 1.469683	 -1.481289	 0.866878
H	 3.129736	 0.423364	 -0.875135
H	 3.757882	 -0.966877	 -0.001197
H	 3.130964	 0.423383	 0.873533
C	 -0.753317	 -1.781736	 -0.431023
C	 -2.196700	 -2.229342	 -0.338263
H	 -0.108335	 -2.378984	 0.198960
H	 -0.379547	 -1.844450	 -1.443917
H	 -2.557681	 -2.155411	 0.681240
H	 -2.284597	 -3.262100	 -0.659718
H	 -2.830467	 -1.618044	 -0.970649

2 4 11 13 F
4 2 3 6 F
