%nprocshared=4
%mem=2GB
#HF/6-31G* nosymm scf=tight opt=ModRedundant

Mol

0 1
O	 -2.447897	 0.713971	 -0.889890
C	 -1.921153	 0.064240	 -0.045697
C	 -2.615713	 -0.950783	 0.821287
O	 -0.632575	 0.154573	 0.251549
H	 -2.511087	 -0.674508	 1.864203
H	 -3.660879	 -1.000640	 0.554870
H	 -2.152385	 -1.921913	 0.690936
C	 0.160891	 -1.019931	 0.106212
C	 1.589627	 -0.672828	 0.480843
H	 0.089836	 -1.367806	 -0.916050
H	 -0.238459	 -1.792301	 0.749618
C	 2.246377	 0.346236	 -0.452210
H	 2.163194	 -1.597435	 0.473358
H	 1.604769	 -0.303424	 1.502885
C	 3.691736	 0.652107	 -0.061850
H	 2.219579	 -0.032311	 -1.472055
H	 1.666466	 1.263317	 -0.447249
H	 4.134505	 1.377213	 -0.737283
H	 4.305508	 -0.243868	 -0.089969
H	 3.748266	 1.059562	 0.943567

1 2 4 8 F
