%nprocshared=4
%mem=2GB
#HF/cc-pVTZ nosymm scf=tight opt=ModRedundant

Mol

0 1
H	 -2.644180	 -0.653737	 1.272255
C	 -2.092774	 -0.380414	 0.391915
O	 -0.808934	 -0.154049	 0.752536
F	 -2.163230	 -1.351640	 -0.507133
F	 -2.627232	 0.691260	 -0.169301
C	 0.085006	 0.250800	 -0.215074
C	 0.076710	 1.777496	 -0.235227
Cl	 -0.365564	 -0.381621	 -1.809617
H	 1.089930	 -0.075746	 -0.012238
F	 0.920472	 2.228497	 -1.128360
F	 0.455620	 2.222122	 0.939528
F	 -1.106436	 2.262596	 -0.494255

9 6 3 2 F
