%nprocshared=4
%mem=2GB
#HF/6-31G* nosymm scf=tight opt=ModRedundant

Mol

0 1
O	 3.225979	 0.970355	 -0.599647
C	 2.701189	 0.057885	 -0.047330
C	 1.245376	 -0.013843	 0.345420
O	 3.347903	 -1.046386	 0.304773
C	 0.300692	 0.429160	 -0.769675
H	 1.051051	 -1.033193	 0.662210
H	 1.119384	 0.601787	 1.232449
C	 -1.173612	 0.462191	 -0.352745
H	 0.425930	 -0.225438	 -1.626959
H	 0.597997	 1.417821	 -1.102212
C	 -1.784837	 -0.905174	 -0.033644
H	 -1.742036	 0.916703	 -1.160852
H	 -1.292680	 1.120369	 0.506694
C	 -3.282729	 -0.831189	 0.269419
H	 -1.621203	 -1.575501	 -0.876084
H	 -1.276347	 -1.353619	 0.816830
C	 -3.903181	 -2.191066	 0.594851
H	 -3.801131	 -0.395366	 -0.582961
H	 -3.448001	 -0.152686	 1.104893
C	 -5.399962	 -2.108985	 0.892525
H	 -3.738060	 -2.870612	 -0.238572
H	 -3.389184	 -2.626337	 1.449326
H	 -5.810590	 -3.088022	 1.119415
H	 -5.947220	 -1.709626	 0.043281
H	 -5.595591	 -1.462970	 1.743799
C	 4.728119	 -1.109107	 -0.004993
H	 4.882018	 -1.033965	 -1.071845
H	 5.068212	 -2.067527	 0.355250
H	 5.265056	 -0.311663	 0.488280

6 3 2 1 F
