%nprocshared=1
%mem=2GB
#HF/6-31G* nosymm scf=tight opt=ModRedundant

Mol

0 1
O	 0.997834	 1.025489	 -0.762398
C	 1.122059	 0.121804	 -0.000188
C	 0.136669	 -0.259878	 1.077410
O	 2.172624	 -0.688929	 0.000216
C	 -1.092739	 0.642297	 1.121883
H	 -0.141815	 -1.296810	 0.910158
H	 0.669535	 -0.246179	 2.024311
C	 -2.073906	 0.234135	 2.221920
H	 -1.590252	 0.617894	 0.157316
H	 -0.777678	 1.670172	 1.272594
C	 -3.308066	 1.133635	 2.274389
H	 -2.385767	 -0.796737	 2.066611
H	 -1.569595	 0.257789	 3.185861
H	 -3.853612	 1.104887	 1.335663
H	 -3.987173	 0.822733	 3.062062
H	 -3.031660	 2.166819	 2.463522
C	 3.452279	 -0.082609	 0.000533
H	 3.583069	 0.529321	 -0.880332
H	 4.163299	 -0.894027	 0.001117
H	 3.582335	 0.529955	 0.881077

1 2 4 17 F
