%nprocshared=1
%mem=2GB
#HF/6-31G* nosymm scf=tight 

Mol

0 1
O	 1.763701	 0.480270	 0.549133
C	 2.701189	 0.057885	 -0.047330
C	 3.313190	 0.679030	 -1.279573
O	 3.347903	 -1.046386	 0.304773
C	 2.609594	 1.961789	 -1.717292
H	 4.363692	 0.844352	 -1.064387
H	 3.285763	 -0.070282	 -2.066642
C	 3.151796	 2.547498	 -3.025518
H	 2.684523	 2.700268	 -0.924731
H	 1.551470	 1.753467	 -1.833041
C	 4.592199	 3.062502	 -2.953953
H	 2.503421	 3.369131	 -3.320904
H	 3.073509	 1.802655	 -3.816144
C	 5.048416	 3.735713	 -4.249967
H	 4.678355	 3.770788	 -2.131319
H	 5.271628	 2.244553	 -2.725244
C	 6.488085	 4.249619	 -4.191802
H	 4.380853	 4.564625	 -4.479093
H	 4.952361	 3.031335	 -5.074786
C	 6.934603	 4.923910	 -5.488588
H	 6.586082	 4.952857	 -3.367487
H	 7.157326	 3.421704	 -3.967182
H	 7.958576	 5.277275	 -5.416337
H	 6.305767	 5.778232	 -5.722885
H	 6.880789	 4.235389	 -6.327227
C	 4.728119	 -1.109107	 -0.004993
H	 4.882018	 -1.033965	 -1.071845
H	 5.068212	 -2.067527	 0.355250
H	 5.265056	 -0.311663	 0.488280

21 17 14 11 F
17 14 11 15 F
15 11 8 5 F
6 3 5 9 F
11 8 5 9 F
2 4 26 27 F
6 3 2 1 F
