%nprocshared=1
%mem=2GB
#HF/6-31G* nosymm scf=tight opt=ModRedundant

Mol

0 1
O	 -2.821601	 1.309235	 -0.001213
C	 -2.668563	 0.129746	 -0.000350
C	 -3.801572	 -0.864014	 -0.000442
O	 -1.481751	 -0.454642	 0.000584
H	 -4.417280	 -0.689587	 -0.874708
H	 -3.443784	 -1.883046	 -0.000565
H	 -4.417179	 -0.689832	 0.873954
C	 -0.334255	 0.388708	 0.000906
C	 0.891947	 -0.504646	 0.000751
H	 -0.365390	 1.025305	 -0.873475
H	 -0.365484	 1.024911	 0.875569
C	 2.191998	 0.301789	 0.000897
H	 0.855148	 -1.151283	 -0.871571
H	 0.855132	 -1.151660	 0.872805
C	 3.105129	 -0.039554	 -1.178087
H	 1.960433	 1.365242	 -0.022128
H	 2.728746	 0.126454	 0.931619
C	 4.403007	 0.766906	 -1.178635
H	 2.570445	 0.135426	 -2.108985
H	 3.339412	 -1.101468	 -1.155308
H	 4.202353	 1.833009	 -1.235003
H	 5.028557	 0.503052	 -2.025573
H	 4.977248	 0.586569	 -0.274347

16 12 9 13 F
