%nprocshared=1
%mem=2GB
#HF/6-31G* nosymm scf=tight 

Mol

0 1
O	 0.625848	 1.349995	 -0.000749
C	 0.486307	 0.169203	 0.000779
C	 1.608116	 -0.841643	 0.000302
O	 -0.698257	 -0.426125	 0.001050
C	 2.990107	 -0.200498	 -0.000684
H	 1.468623	 -1.481519	 -0.865924
H	 1.469683	 -1.481289	 0.866878
H	 3.129736	 0.423364	 -0.875135
H	 3.757882	 -0.966877	 -0.001197
H	 3.130964	 0.423383	 0.873533
C	 -1.384887	 -0.525428	 -1.242364
C	 -2.695248	 -1.237641	 -0.981562
H	 -0.767020	 -1.069330	 -1.943788
H	 -1.541983	 0.468437	 -1.638778
H	 -2.520851	 -2.229267	 -0.579788
H	 -3.253232	 -1.335310	 -1.907176
H	 -3.300170	 -0.683127	 -0.273155

2 4 11 13 F
4 2 3 6 F
