%nprocshared=4
%mem=2GB
#HF/cc-pVTZ nosymm scf=tight opt=ModRedundant

Mol

0 1
H	 2.867672	 -0.456275	 0.875795
C	 2.403497	 -0.020426	 0.000000
N	 0.989899	 -0.304564	 0.000000
H	 2.867672	 -0.456275	 -0.875795
H	 2.620366	 1.051270	 0.000000
C	 0.675785	 -1.549982	 0.669205
C	 0.421109	 -0.282960	 -1.331758
H	 1.155747	 -2.400909	 0.175946
H	 1.044650	 -1.510466	 1.687588
C	 -0.825099	 -1.767474	 0.686085
H	 0.603110	 0.686212	 -1.781546
H	 0.881916	 -1.038587	 -1.975519
C	 -1.073232	 -0.533007	 -1.263465
H	 -1.063263	 -2.736827	 1.101127
H	 -1.296303	 -1.003532	 1.301275
O	 -1.354603	 -1.732908	 -0.606036
H	 -1.490754	 -0.610040	 -2.257632
H	 -1.557275	 0.294815	 -0.749159

6 3 2 5 F
