%nprocshared=4
%mem=2GB
#HF/cc-pVTZ nosymm scf=tight opt=ModRedundant

Mol

0 1
H	 -3.258660	 -0.290394	 1.471450
C	 -3.307964	 -0.275695	 0.374072
C	 -2.653809	 0.914422	 -0.273689
O	 -3.855140	 -1.148880	 -0.205112
C	 -3.666566	 1.952164	 -0.766730
H	 -1.950526	 1.344871	 0.427340
H	 -2.089565	 0.534465	 -1.122551
C	 -4.421145	 2.655218	 0.359550
H	 -3.139506	 2.689452	 -1.362511
H	 -4.375241	 1.472836	 -1.437714
C	 -5.418530	 3.693847	 -0.146667
H	 -3.704620	 3.134376	 1.021447
H	 -4.945189	 1.920959	 0.965908
C	 -6.163026	 4.403871	 0.982421
H	 -4.890940	 4.419170	 -0.758141
H	 -6.139969	 3.209324	 -0.800930
C	 -7.232364	 5.396111	 0.522120
H	 -5.445574	 4.920097	 1.616108
H	 -6.636454	 3.654587	 1.610708
C	 -6.693351	 6.619411	 -0.215501
H	 -7.785007	 5.731987	 1.393995
H	 -7.950584	 4.881188	 -0.110588
H	 -5.967091	 7.151024	 0.391070
H	 -6.212342	 6.351993	 -1.148670
H	 -7.494916	 7.310391	 -0.450033

6 3 2 4 F
