%nprocshared=1
%mem=2GB
#HF/6-31G* nosymm scf=tight 

Mol

0 1
H	 3.022657	 1.376703	 2.520970
N	 2.187468	 0.823532	 2.518677
C	 1.397424	 1.086841	 1.324515
H	 1.672959	 1.072872	 3.342048
C	 0.177036	 0.173570	 1.276095
H	 2.027332	 0.889491	 0.462467
H	 1.074519	 2.127863	 1.244483
C	 -0.679275	 0.379305	 0.025956
H	 0.517038	 -0.856477	 1.332984
H	 -0.432286	 0.346609	 2.162729
C	 -1.903357	 -0.536963	 -0.023547
H	 -0.070113	 0.209414	 -0.860558
H	 -1.007226	 1.416485	 -0.024572
C	 -3.225172	 0.228290	 0.028445
H	 -1.867824	 -1.134999	 -0.931459
H	 -1.860449	 -1.239604	 0.805977
H	 -3.313397	 0.915643	 -0.808262
H	 -4.073500	 -0.448134	 -0.008893
H	 -3.306061	 0.809945	 0.942516

6 3 5 9 F
12 8 5 9 F
1 2 3 6 F
