%nprocshared=4
%mem=2GB
#HF/cc-pVTZ nosymm scf=tight opt=ModRedundant

Mol

0 1
O	 -0.988175	 -1.402891	 0.050086
C	 -0.675048	 -0.248293	 -0.009686
C	 -1.742492	 0.826599	 -0.011538
N	 0.622280	 0.144970	 -0.099307
H	 -1.692153	 1.431066	 -0.908439
H	 -2.698310	 0.331559	 0.031353
H	 -1.642148	 1.483784	 0.843455
C	 1.046921	 0.893935	 -1.263215
C	 1.688620	 -0.403309	 0.704473
H	 1.755292	 1.656499	 -0.963334
H	 0.194850	 1.359920	 -1.723666
H	 1.528774	 0.249041	 -1.993667
H	 2.431116	 0.364078	 0.881820
H	 1.332608	 -0.739208	 1.663287
H	 2.182717	 -1.236493	 0.209786

8 4 2 3 F
