%nprocshared=4
%mem=2GB
#HF/cc-pVTZ nosymm scf=tight opt=ModRedundant

Mol

0 1
H	 2.614283	 2.028610	 0.296620
O	 3.358864	 1.662087	 -0.142800
C	 3.565468	 0.338079	 0.273842
C	 2.533667	 -0.637565	 -0.272227
H	 4.548038	 0.064914	 -0.086598
H	 3.593945	 0.282242	 1.360360
C	 2.089977	 -0.345145	 -1.703827
H	 2.943011	 -1.641659	 -0.214001
H	 1.667923	 -0.610898	 0.385174
C	 1.030268	 -1.324774	 -2.206004
H	 2.952883	 -0.378373	 -2.360556
H	 1.693900	 0.667491	 -1.758385
C	 0.494937	 -1.034402	 -3.609342
H	 1.434938	 -2.333577	 -2.177991
H	 0.194933	 -1.315364	 -1.511312
C	 1.507899	 -1.216483	 -4.738279
H	 -0.350252	 -1.691600	 -3.794470
H	 0.100612	 -0.021130	 -3.640036
C	 0.900988	 -1.012297	 -6.124055
H	 1.934418	 -2.215481	 -4.678661
H	 2.335248	 -0.524491	 -4.613201
C	 1.910488	 -1.189667	 -7.253365
H	 0.079982	 -1.710410	 -6.262493
H	 0.466932	 -0.017687	 -6.182435
H	 2.339407	 -2.186229	 -7.241933
H	 1.446997	 -1.040748	 -8.221924
H	 2.726139	 -0.479570	 -7.164883

8 4 3 2 F
