%nprocshared=4
%mem=2GB
#HF/cc-pVTZ nosymm scf=tight opt=ModRedundant

Mol

0 1
O	 -1.730430	 -1.834127	 -1.523331
C	 -0.954702	 -0.996674	 -1.852498
C	 -0.672668	 0.199903	 -0.965532
C	 -0.197251	 -1.087253	 -3.155890
C	 0.376695	 -0.140025	 0.100361
H	 -1.602056	 0.477670	 -0.484704
H	 -0.333141	 1.039395	 -1.562892
C	 1.630207	 -0.772146	 -0.501001
H	 0.627904	 0.769264	 0.631695
H	 -0.050946	 -0.822008	 0.831334
C	 2.907848	 -0.545876	 0.309149
H	 1.772784	 -0.391628	 -1.509394
H	 1.468529	 -1.842059	 -0.599744
C	 3.373802	 0.906639	 0.372125
H	 3.699140	 -1.146831	 -0.127906
H	 2.764321	 -0.923458	 1.318191
H	 3.519798	 1.311927	 -0.623875
H	 4.316899	 0.983758	 0.900700
H	 2.661122	 1.540651	 0.885346
H	 -0.533849	 -0.297315	 -3.819740
H	 -0.369544	 -2.045931	 -3.620457
H	 0.864254	 -0.937960	 -2.993077

3 5 8 12 F
