%nprocshared=1
%mem=2GB
#HF/6-31G* nosymm scf=tight 

Mol

0 1
H	 -0.000158	 1.970498	 0.756846
O	 -0.000074	 1.880206	 -0.189275
C	 -0.000015	 0.544847	 -0.545111
C	 -1.278788	 -0.123820	 -0.051541
C	 1.278802	 -0.123718	 -0.051505
H	 -0.000001	 0.490777	 -1.623619
F	 -1.011274	 -1.348474	 0.348714
F	 -1.823734	 0.524255	 0.956127
F	 -2.173522	 -0.203031	 -1.023536
F	 2.323327	 0.466644	 -0.591854
F	 1.326242	 -1.401483	 -0.363667
F	 1.388946	 -0.015632	 1.262939

6 3 2 1 F
