%nprocshared=4
%mem=2GB
#HF/cc-pVTZ nosymm scf=tight opt=ModRedundant

Mol

0 1
H	 5.202503	 1.450952	 -0.419221
C	 4.483306	 1.171564	 -1.180512
C	 3.153664	 0.759414	 -0.558009
H	 4.355483	 2.021106	 -1.842446
H	 4.913651	 0.361765	 -1.760881
C	 2.117600	 0.348112	 -1.601739
H	 2.765293	 1.581239	 0.032507
H	 3.319580	 -0.068526	 0.127418
C	 0.778215	 -0.075669	 -1.007312
H	 1.953912	 1.166486	 -2.291884
H	 2.510279	 -0.481507	 -2.182531
C	 -0.049851	 1.061901	 -0.433966
H	 0.164031	 -0.538816	 -1.775452
H	 0.914829	 -0.834958	 -0.242894
C	 -1.180025	 0.697761	 0.509157
O	 0.160421	 2.195212	 -0.724939
C	 -2.285431	 -0.137488	 -0.145671
H	 -1.588139	 1.625139	 0.887642
H	 -0.762591	 0.148163	 1.348732
C	 -3.646545	 0.082747	 0.508954
H	 -2.348635	 0.118247	 -1.199806
H	 -2.034895	 -1.192387	 -0.096473
C	 -4.757412	 -0.737227	 -0.138149
H	 -3.900211	 1.137405	 0.459735
H	 -3.580878	 -0.166775	 1.564416
H	 -4.867876	 -0.486707	 -1.187777
H	 -4.549650	 -1.800049	 -0.072540
H	 -5.709585	 -0.556397	 0.346597

12 15 17 21 F
