%nprocshared=4
%mem=2GB
#HF/6-31G* nosymm scf=tight opt=ModRedundant

Mol

0 1
O	 1.214711	 1.306902	 -0.000018
C	 1.122059	 0.121804	 -0.000188
C	 -0.170150	 -0.657997	 -0.000612
O	 2.172624	 -0.688929	 0.000216
C	 -1.412532	 0.227344	 -0.000452
H	 -0.153702	 -1.313099	 -0.867402
H	 -0.153924	 -1.313811	 0.865644
C	 -2.121835	 0.233558	 1.354619
H	 -2.095804	 -0.113799	 -0.771986
H	 -1.131150	 1.239737	 -0.273195
C	 -3.367063	 1.119177	 1.364025
H	 -2.400868	 -0.783270	 1.623463
H	 -1.432008	 0.573664	 2.124384
H	 -4.091700	 0.783551	 0.627878
H	 -3.851002	 1.105679	 2.335568
H	 -3.115834	 2.150268	 1.132994
C	 3.452279	 -0.082609	 0.000533
H	 3.583069	 0.529321	 -0.880332
H	 4.163299	 -0.894027	 0.001117
H	 3.582335	 0.529955	 0.881077

9 5 3 6 F
