%nprocshared=1
%mem=2GB
#HF/6-31G* nosymm scf=tight 

Mol

0 1
H	 -3.684340	 1.286374	 -0.261175
C	 -2.975571	 0.676671	 0.264726
C	 -2.076860	 -0.007332	 -0.404944
H	 -3.022688	 0.643496	 1.336915
O	 -1.180634	 -0.819263	 0.215062
H	 -2.008340	 0.017887	 -1.478194
C	 0.051604	 -1.018856	 -0.387932
C	 1.043764	 0.054862	 -0.001873
H	 -0.017620	 -1.041351	 -1.469781
H	 0.437898	 -1.966374	 -0.042284
F	 2.212596	 -0.199467	 -0.571921
F	 0.652529	 1.252447	 -0.405055
F	 1.230877	 0.110694	 1.300533

11 8 7 9 F
3 5 7 9 F
6 3 2 1 F
