%nprocshared=1
%mem=2GB
#HF/6-31G* nosymm scf=tight 

Mol

0 1
H	 0.457789	 -4.162029	 -3.589958
O	 1.397813	 -4.086826	 -3.665930
C	 1.770537	 -2.733252	 -3.611449
C	 1.647008	 -2.131437	 -2.215997
H	 2.803207	 -2.699137	 -3.934099
H	 1.189797	 -2.149104	 -4.324395
C	 0.213278	 -2.087639	 -1.681799
H	 2.272269	 -2.704851	 -1.536577
H	 2.053108	 -1.121682	 -2.245080
C	 0.115918	 -1.429151	 -0.302766
H	 -0.179285	 -3.099324	 -1.629316
H	 -0.418033	 -1.542170	 -2.383405
C	 -1.309753	 -1.282496	 0.241564
H	 0.715789	 -1.995357	 0.407455
H	 0.566378	 -0.440392	 -0.358817
C	 -2.037799	 -0.007733	 -0.193645
H	 -1.890610	 -2.142323	 -0.085726
H	 -1.285946	 -1.330893	 1.329189
C	 -3.489788	 0.042957	 0.286558
H	 -2.017067	 0.064384	 -1.280144
H	 -1.513726	 0.868678	 0.179924
C	 -4.216917	 1.317354	 -0.141063
H	 -4.025645	 -0.823308	 -0.095450
H	 -3.513059	 -0.038752	 1.371301
H	 -4.239342	 1.411634	 -1.223113
H	 -5.243387	 1.322503	 0.212445
H	 -3.726170	 2.201406	 0.256408

14 10 7 4 F
10 7 4 8 F
8 4 3 2 F
10 13 16 20 F
20 16 19 22 F
4 3 2 1 F
