%nprocshared=4
%mem=2GB
#HF/cc-pVTZ nosymm scf=tight opt=ModRedundant

Mol

0 1
O	 0.316420	 -0.543987	 0.552309
C	 1.121787	 0.124983	 0.000110
C	 1.324613	 1.603485	 0.210716
O	 1.969101	 -0.353489	 -0.896273
C	 1.366194	 2.014396	 1.675416
H	 2.241711	 1.877403	 -0.300538
H	 0.527458	 2.115196	 -0.318583
C	 2.389178	 1.212954	 2.475107
H	 0.380880	 1.889946	 2.110397
H	 1.593306	 3.072326	 1.744325
C	 2.437579	 1.615150	 3.945068
H	 2.158342	 0.153594	 2.399532
H	 3.374352	 1.341431	 2.034469
H	 1.475348	 1.465393	 4.422842
H	 3.171435	 1.030494	 4.487571
H	 2.700296	 2.661783	 4.055161
C	 3.226978	 0.281687	 -1.004047
H	 3.107866	 1.319775	 -1.276836
H	 3.762124	 -0.246898	 -1.776112
H	 3.765395	 0.222432	 -0.069799

1 2 4 17 F
