%nprocshared=1
%mem=2GB
#HF/6-31G* nosymm scf=tight opt=ModRedundant

Mol

0 1
H	 2.591676	 2.013956	 0.335017
O	 3.341076	 1.666752	 -0.126416
C	 3.569581	 0.339145	 0.272707
C	 2.539767	 -0.640285	 -0.279495
H	 4.553106	 0.084646	 -0.100901
H	 3.608576	 0.269204	 1.359154
C	 1.098966	 -0.126859	 -0.221583
H	 2.802883	 -0.873957	 -1.307860
H	 2.616308	 -1.567438	 0.286099
C	 0.084349	 -1.153614	 -0.732607
H	 1.020580	 0.783920	 -0.808697
H	 0.850634	 0.139832	 0.805815
C	 -1.382246	 -0.722282	 -0.616882
H	 0.308406	 -1.392229	 -1.770735
H	 0.216345	 -2.078046	 -0.174303
C	 -1.778495	 0.459576	 -1.506082
H	 -2.009945	 -1.573637	 -0.871841
H	 -1.605646	 -0.483126	 0.421739
C	 -3.272057	 0.784620	 -1.434967
H	 -1.508619	 0.238882	 -2.537863
H	 -1.212843	 1.344924	 -1.225908
C	 -3.669147	 1.968042	 -2.316724
H	 -3.845533	 -0.092024	 -1.728409
H	 -3.545560	 0.995913	 -0.403252
H	 -3.438129	 1.774213	 -3.360413
H	 -4.733104	 2.172124	 -2.246148
H	 -3.139538	 2.870473	 -2.024327

8 4 3 2 F
