%nprocshared=4
%mem=2GB
#HF/cc-pVTZ nosymm scf=tight opt=ModRedundant

Mol

0 1
O	 0.395927	 1.296676	 -0.000076
C	 0.503051	 0.114301	 -0.000074
C	 -0.701422	 -0.805636	 -0.000109
C	 1.858118	 -0.556123	 0.000212
C	 -0.691980	 -1.839310	 -1.115237
H	 -0.746714	 -1.286228	 0.973757
H	 -1.589968	 -0.182167	 -0.056777
H	 0.179653	 -2.476284	 -1.046332
H	 -1.576774	 -2.462014	 -1.058357
H	 -0.671081	 -1.362451	 -2.086010
H	 1.961106	 -1.191101	 -0.872843
H	 2.636688	 0.191085	 -0.000109
H	 1.961070	 -1.190284	 0.873873

6 3 2 1 F
