%nprocshared=4
%mem=2GB
#HF/cc-pVTZ nosymm scf=tight opt=ModRedundant

Mol

0 1
H	 -2.644180	 -0.653737	 1.272255
C	 -2.092774	 -0.380414	 0.391915
O	 -0.808934	 -0.154049	 0.752536
F	 -2.163230	 -1.351640	 -0.507133
F	 -2.627232	 0.691260	 -0.169301
C	 0.085006	 0.250800	 -0.215074
C	 -0.389117	 -0.327428	 -1.546290
Cl	 1.724652	 -0.320017	 0.147233
H	 0.131827	 1.321261	 -0.312885
F	 0.413547	 0.034262	 -2.514759
F	 -1.584080	 0.142981	 -1.814792
F	 -0.457715	 -1.630130	 -1.523645

9 6 3 2 F
