%nprocshared=1
%mem=2GB
#HF/6-31G* nosymm scf=tight 

Mol

0 1
H	 -3.161837	 0.500524	 -0.000234
C	 -2.367097	 -0.232926	 -0.000000
O	 -1.158440	 0.455814	 -0.000122
H	 -2.468853	 -0.861886	 -0.882833
H	 -2.468942	 -0.861421	 0.883154
C	 -0.029776	 -0.365156	 0.000148
C	 1.155833	 0.431634	 0.516015
H	 0.169234	 -0.730063	 -1.008384
H	 -0.201455	 -1.239131	 0.629912
C	 2.442591	 -0.391719	 0.550970
H	 1.285994	 1.303951	 -0.117059
H	 0.917983	 0.798424	 1.509792
H	 2.712000	 -0.748453	 -0.439275
H	 3.271494	 0.200920	 0.923185
H	 2.341169	 -1.258096	 1.198665

6 3 2 4 F
11 7 6 8 F
