%nprocshared=4
%mem=2GB
#HF/6-31G* nosymm scf=tight opt=ModRedundant

Mol

0 1
H	 -4.156742	 0.825964	 -0.386776
O	 -3.438663	 0.258271	 -0.627591
C	 -2.265892	 0.679409	 0.020359
C	 -1.137955	 -0.251707	 -0.387720
H	 -2.022134	 1.704216	 -0.256517
H	 -2.395957	 0.655945	 1.101504
C	 0.198102	 0.111031	 0.262842
H	 -1.046944	 -0.224564	 -1.470175
H	 -1.420346	 -1.267081	 -0.123622
C	 1.331804	 -0.827780	 -0.158768
H	 0.452836	 1.136862	 0.007978
H	 0.094822	 0.080649	 1.346783
C	 2.723619	 -0.410569	 0.329459
H	 1.342964	 -0.912588	 -1.244120
H	 1.116806	 -1.824343	 0.220779
C	 3.243875	 0.895854	 -0.272975
H	 3.424222	 -1.207124	 0.091250
H	 2.714788	 -0.329854	 1.414619
H	 3.251977	 0.848779	 -1.358681
H	 2.637085	 1.747371	 0.016682
H	 4.259473	 1.094070	 0.055697

4 7 10 14 F
