%nprocshared=4
%mem=2GB
#HF/cc-pVTZ nosymm scf=tight opt=ModRedundant

Mol

0 1
H	 2.614283	 2.028610	 0.296620
O	 3.358864	 1.662087	 -0.142800
C	 3.565468	 0.338079	 0.273842
C	 2.533667	 -0.637565	 -0.272227
H	 4.548038	 0.064914	 -0.086598
H	 3.593945	 0.282242	 1.360360
C	 3.075874	 -2.040061	 -0.538434
H	 1.705563	 -0.692347	 0.428060
H	 2.138552	 -0.223248	 -1.196685
C	 2.020611	 -2.981887	 -1.116553
H	 3.463981	 -2.455819	 0.385428
H	 3.914485	 -1.976748	 -1.229817
C	 2.527912	 -4.380650	 -1.472027
H	 1.195220	 -3.067395	 -0.413954
H	 1.607683	 -2.528415	 -2.013393
C	 2.950532	 -5.237470	 -0.279973
H	 1.741142	 -4.901971	 -2.010307
H	 3.361005	 -4.294193	 -2.166027
C	 3.353914	 -6.655340	 -0.676633
H	 2.131464	 -5.285634	 0.434364
H	 3.781004	 -4.770061	 0.240458
C	 3.780024	 -7.512378	 0.510721
H	 2.523238	 -7.135112	 -1.186900
H	 4.166526	 -6.608783	 -1.396742
H	 2.977155	 -7.605031	 1.234638
H	 4.056859	 -8.511748	 0.194921
H	 4.634047	 -7.078677	 1.020525

8 4 3 2 F
