%nprocshared=4
%mem=2GB
#HF/cc-pVTZ nosymm scf=tight opt=ModRedundant

Mol

0 1
H	 2.146449	 -0.015363	 -5.021835
C	 2.499305	 0.499806	 -4.135855
C	 1.356395	 0.769417	 -3.163029
H	 3.263031	 -0.117957	 -3.676173
H	 2.969678	 1.424006	 -4.455860
C	 1.814932	 1.504790	 -1.905674
H	 0.895108	 -0.170908	 -2.883850
H	 0.590810	 1.358215	 -3.663049
C	 0.690750	 1.793991	 -0.915995
H	 2.583123	 0.926412	 -1.407488
H	 2.267065	 2.449608	 -2.193214
C	 0.166485	 0.574257	 -0.177158
H	 1.040952	 2.482728	 -0.151296
H	 -0.138856	 2.295593	 -1.405554
C	 -1.180025	 0.697761	 0.509157
O	 0.791315	 -0.435320	 -0.117018
C	 -2.285431	 -0.137488	 -0.145671
H	 -1.447360	 1.745713	 0.496200
H	 -1.065514	 0.394096	 1.546399
C	 -3.646545	 0.082747	 0.508954
H	 -2.348635	 0.118247	 -1.199806
H	 -2.034895	 -1.192387	 -0.096473
C	 -4.757412	 -0.737227	 -0.138149
H	 -3.900211	 1.137405	 0.459735
H	 -3.580878	 -0.166775	 1.564416
H	 -4.867876	 -0.486707	 -1.187777
H	 -4.549650	 -1.800049	 -0.072540
H	 -5.709585	 -0.556397	 0.346597

16 12 15 17 F
