%nprocshared=4
%mem=2GB
#HF/cc-pVTZ nosymm scf=tight opt=ModRedundant

Mol

0 1
O	 1.430284	 2.831959	 0.160283
C	 1.743904	 1.860989	 0.768797
C	 0.706162	 0.853122	 1.221946
C	 3.186885	 1.569337	 1.105717
C	 0.376695	 -0.140025	 0.100361
H	 -0.186269	 1.401897	 1.494940
H	 1.058700	 0.317605	 2.097047
C	 1.630207	 -0.772146	 -0.501001
H	 -0.276873	 -0.903171	 0.503704
H	 -0.179610	 0.365616	 -0.685229
C	 2.907848	 -0.545876	 0.309149
H	 1.772784	 -0.391628	 -1.509394
H	 1.468529	 -1.842059	 -0.599744
C	 3.373802	 0.906639	 0.372125
H	 3.699140	 -1.146831	 -0.127906
H	 2.764321	 -0.923458	 1.318191
H	 3.519798	 1.311927	 -0.623875
H	 4.316899	 0.983758	 0.900700
H	 2.661122	 1.540651	 0.885346
H	 3.325808	 1.649491	 2.179157
H	 3.835147	 2.272047	 0.605193
H	 3.448572	 0.555597	 0.823866

3 5 8 12 F
