%nprocshared=1
%mem=2GB
#HF/6-31G* nosymm scf=tight opt=ModRedundant

Mol

0 1
H	 -2.835882	 -0.083948	 0.046364
N	 -1.877375	 0.059520	 0.298667
C	 -1.189835	 0.840777	 -0.714265
H	 -1.449546	 -0.843084	 0.372000
C	 0.265612	 1.014223	 -0.333837
H	 -1.234478	 0.402261	 -1.712119
H	 -1.651877	 1.821764	 -0.768691
O	 0.874168	 -0.245412	 -0.342030
H	 0.763910	 1.675321	 -1.042560
H	 0.334251	 1.459970	 0.656028
C	 2.202317	 -0.244239	 0.074611
H	 2.711377	 -1.041390	 -0.449894
H	 2.692099	 0.699270	 -0.159667
H	 2.283185	 -0.418429	 1.145558

5 8 11 13 F
