%nprocshared=1
%mem=2GB
#HF/6-31G* nosymm scf=tight opt=ModRedundant

Mol

0 1
O	 2.862325	 1.357334	 0.000267
C	 2.843464	 0.164689	 -0.000222
C	 1.546494	 -0.624492	 -0.000609
C	 4.124123	 -0.644674	 -0.000428
C	 0.291004	 0.242674	 0.000989
H	 1.557904	 -1.283758	 -0.867573
H	 1.558622	 -1.285963	 0.864672
C	 0.458881	 1.515824	 0.832053
H	 -0.542716	 -0.339158	 0.381136
H	 0.035389	 0.500470	 -1.021924
C	 -0.794442	 2.392645	 0.842001
H	 0.718514	 1.250080	 1.855781
H	 1.297582	 2.093727	 0.446469
C	 -0.634444	 3.668030	 1.671343
H	 -1.633345	 1.816176	 1.227934
H	 -1.054425	 2.659629	 -0.180802
C	 -1.890594	 4.538514	 1.676623
H	 -0.375722	 3.402390	 2.694242
H	 0.202899	 4.245861	 1.285564
H	 -2.739100	 3.999718	 2.088797
H	 -1.746480	 5.434271	 2.272903
H	 -2.155734	 4.850139	 0.670275
H	 4.165367	 -1.288615	 -0.874074
H	 4.976217	 0.020734	 -0.001915
H	 4.166763	 -1.286207	 0.874930

9 5 3 6 F
