%nprocshared=4
%mem=2GB
#HF/cc-pVTZ nosymm scf=tight opt=ModRedundant

Mol

0 1
O	 -0.466383	 0.133050	 -0.703727
C	 0.485107	 0.171416	 -0.000134
C	 1.606966	 -0.836201	 0.000174
O	 0.691433	 1.122109	 0.894404
C	 2.988788	 -0.202529	 -0.000115
H	 1.465110	 -1.474645	 -0.864821
H	 1.465209	 -1.474077	 0.865596
H	 3.131767	 0.419673	 -0.873407
H	 3.750876	 -0.972315	 0.000098
H	 3.131883	 0.420264	 0.872742
C	 -0.285516	 2.147064	 1.009837
C	 0.171826	 3.101503	 2.087971
H	 -1.238944	 1.700089	 1.253837
H	 -0.388802	 2.645426	 0.056270
H	 0.272623	 2.591233	 3.037622
H	 -0.553408	 3.898492	 2.202326
H	 1.127561	 3.542010	 1.833227

4 2 3 6 F
