%nprocshared=4
%mem=2GB
#HF/cc-pVTZ nosymm scf=tight opt=ModRedundant

Mol

0 1
H	 -3.436473	 1.252944	 -1.023892
O	 -3.458596	 0.315260	 -0.960865
C	 -3.176635	 -0.080824	 0.355601
C	 -1.763371	 0.265266	 0.799691
H	 -3.321825	 -1.153438	 0.379502
H	 -3.895468	 0.357385	 1.043382
C	 -0.673390	 -0.426948	 -0.013392
H	 -1.631049	 1.344913	 0.747560
H	 -1.664587	 -0.001624	 1.849167
C	 0.737842	 -0.043159	 0.423759
H	 -0.806103	 -0.190518	 -1.063345
H	 -0.797221	 -1.503753	 0.074146
C	 1.824000	 -0.743224	 -0.390623
H	 0.850588	 1.033777	 0.343840
H	 0.868587	 -0.286314	 1.476203
C	 2.997341	 -1.281784	 0.429786
H	 2.201134	 -0.059409	 -1.147602
H	 1.372986	 -1.571498	 -0.930224
C	 3.855287	 -0.209407	 1.096929
H	 3.629444	 -1.874635	 -0.224240
H	 2.621543	 -1.964880	 1.187134
H	 4.240410	 0.492384	 0.363958
H	 4.703869	 -0.655756	 1.602817
H	 3.298068	 0.355536	 1.834460

17 13 10 7 F
