%nprocshared=1
%mem=2GB
#HF/6-31G* nosymm scf=tight 

Mol

0 1
H	 -0.021362	 1.262648	 4.626072
C	 -0.660881	 0.405515	 4.381205
C	 -1.481766	 0.560795	 3.126355
O	 -0.671714	 -0.551837	 5.084845
C	 -0.631681	 0.961804	 1.912764
H	 -2.015957	 -0.365658	 2.950188
H	 -2.218557	 1.339333	 3.320445
C	 0.348616	 -0.126469	 1.467815
H	 -1.298616	 1.204518	 1.090832
H	 -0.086345	 1.876516	 2.140069
C	 1.180775	 0.282413	 0.250794
H	 -0.206604	 -1.034009	 1.239890
H	 1.015814	 -0.380483	 2.289316
C	 2.148627	 -0.814315	 -0.201312
H	 0.509257	 0.544823	 -0.562801
H	 1.744483	 1.184240	 0.486006
C	 3.580890	 -0.659131	 0.322722
H	 2.166869	 -0.852443	 -1.289387
H	 1.762857	 -1.776509	 0.128956
C	 4.324889	 0.564933	 -0.213704
H	 4.142010	 -1.551473	 0.056605
H	 3.564836	 -0.624694	 1.410140
H	 4.342616	 0.565491	 -1.300421
H	 3.866655	 1.493402	 0.110242
H	 5.353900	 0.572371	 0.132816

6 3 5 8 F
6 3 2 4 F
3 5 8 12 F
12 8 11 14 F
20 17 14 18 F
