%nprocshared=4
%mem=2GB
#HF/cc-pVTZ nosymm scf=tight opt=ModRedundant

Mol

0 1
H	 -3.268214	 -0.875720	 0.463107
C	 -2.806015	 0.000007	 0.024886
N	 -1.391133	 0.000016	 0.301321
H	 -3.029448	 0.000055	 -1.045738
H	 -3.268126	 0.875758	 0.463150
C	 -0.628726	 0.669147	 -0.730461
C	 -0.876976	 -1.331264	 0.539788
H	 -0.737108	 0.166240	 -1.695960
H	 -1.003692	 1.679381	 -0.844089
C	 0.842373	 0.720180	 -0.362661
H	 -1.433165	 -1.781411	 1.353489
H	 -1.002277	 -1.970536	 -0.339120
C	 0.594123	 -1.280231	 0.907588
H	 1.398563	 1.170327	 -1.176363
H	 0.967675	 1.359452	 0.516246
N	 1.356531	 -0.611100	 -0.124195
H	 0.969090	 -2.290466	 1.021215
H	 0.702506	 -0.777324	 1.873086
C	 2.771413	 -0.611091	 0.152240
H	 3.308876	 -0.157606	 -0.671196
H	 3.126349	 -1.628154	 0.262532
H	 3.025838	 -0.063621	 1.064217

6 3 2 4 F
