%nprocshared=1
%mem=2GB
#HF/6-31G* nosymm scf=tight 

Mol

0 1
H	 3.710082	 -1.212750	 -2.252280
C	 3.216570	 -1.231468	 -1.285923
C	 1.942370	 -0.388198	 -1.302488
H	 2.997795	 -2.268597	 -1.047750
H	 3.923886	 -0.865109	 -0.547186
C	 1.217350	 -0.386724	 0.039429
H	 1.260368	 -0.754413	 -2.063506
H	 2.191837	 0.635533	 -1.576594
N	 0.000003	 0.397874	 -0.023260
H	 0.945113	 -1.405792	 0.300868
H	 1.898099	 -0.037826	 0.823158
C	 -1.217365	 -0.386708	 0.039277
H	 -0.000031	 1.072115	 0.718656
C	 -2.452633	 0.504241	 -0.042481
H	 -1.215291	 -1.074557	 -0.802042
H	 -1.269739	 -1.003477	 0.942735
C	 -3.758029	 -0.289423	 -0.010781
H	 -2.394220	 1.093569	 -0.952170
H	 -2.440793	 1.210787	 0.785871
H	 -3.816659	 -0.981993	 -0.845726
H	 -4.617837	 0.370165	 -0.069296
H	 -3.847478	 -0.867502	 0.904682

15 12 14 18 F
