%nprocshared=4
%mem=2GB
#HF/cc-pVTZ nosymm scf=tight opt=ModRedundant

Mol

0 1
O	 0.889609	 0.158689	 -0.857956
C	 1.704209	 0.119472	 -0.000093
C	 1.738547	 1.009086	 1.216068
O	 2.715427	 -0.733672	 0.000025
C	 0.597756	 2.014918	 1.272835
H	 1.735667	 0.361911	 2.087047
H	 2.702506	 1.507274	 1.221956
C	 0.663722	 2.898020	 2.515331
H	 -0.347565	 1.484821	 1.247567
H	 0.620247	 2.631354	 0.381325
C	 -0.472432	 3.913945	 2.589627
H	 0.643292	 2.273551	 3.405764
H	 1.615449	 3.424343	 2.536235
C	 -0.406834	 4.796256	 3.831656
H	 -1.423491	 3.389301	 2.569787
H	 -0.451997	 4.539273	 1.701535
H	 -0.459978	 4.201763	 4.737740
H	 -1.226669	 5.504873	 3.853280
H	 0.519020	 5.361130	 3.862428
C	 4.020999	 -0.192556	 0.000019
H	 4.182809	 0.412891	 -0.879449
H	 4.692590	 -1.035653	 0.000152
H	 4.182726	 0.413087	 0.879368

1 2 4 20 F
