%nprocshared=4
%mem=2GB
#HF/6-31G* nosymm scf=tight opt=ModRedundant

Mol

0 1
O	 -2.563627	 0.866236	 0.297896
C	 -2.135466	 -0.235149	 0.130375
C	 -0.889235	 -0.467034	 -0.705952
C	 -2.786438	 -1.444766	 0.763178
C	 0.379448	 -0.143569	 0.099626
H	 -0.946192	 0.186931	 -1.569311
H	 -0.852355	 -1.493135	 -1.060612
C	 1.631333	 -0.777471	 -0.511575
H	 0.482768	 0.934507	 0.149241
H	 0.263088	 -0.495696	 1.123449
C	 2.915987	 -0.544314	 0.291766
H	 1.766672	 -0.399098	 -1.523130
H	 1.471257	 -1.849544	 -0.605828
C	 3.373361	 0.914346	 0.347591
H	 3.708709	 -1.142521	 -0.150311
H	 2.780642	 -0.921148	 1.303579
H	 3.506512	 1.320010	 -0.651625
H	 4.322697	 0.999599	 0.867103
H	 2.660624	 1.545032	 0.868198
H	 -3.202904	 -2.082813	 -0.011882
H	 -3.575222	 -1.132606	 1.433372
H	 -2.054029	 -2.036060	 1.305168

6 3 5 8 F
