%nprocshared=4
%mem=2GB
#HF/cc-pVTZ nosymm scf=tight opt=ModRedundant

Mol

0 1
H	 5.141862	 2.180043	 0.459923
C	 4.701991	 1.280375	 0.045222
C	 3.265538	 1.098102	 0.523451
H	 4.744429	 1.359347	 -1.035601
H	 5.324183	 0.441574	 0.340333
C	 2.616114	 -0.167063	 -0.032946
H	 2.679655	 1.962703	 0.233377
H	 3.251225	 1.059661	 1.610254
C	 1.179462	 -0.379147	 0.433892
H	 2.634408	 -0.137771	 -1.115368
H	 3.203478	 -1.029055	 0.269968
C	 0.166485	 0.574257	 -0.177158
H	 0.849735	 -1.380518	 0.168747
H	 1.110157	 -0.323950	 1.516328
C	 -1.180025	 0.697761	 0.509157
O	 0.404964	 1.187789	 -1.167099
C	 -2.285431	 -0.137488	 -0.145671
H	 -1.447360	 1.745713	 0.496200
H	 -1.065514	 0.394096	 1.546399
C	 -3.646545	 0.082747	 0.508954
H	 -2.348635	 0.118247	 -1.199806
H	 -2.034895	 -1.192387	 -0.096473
C	 -4.757412	 -0.737227	 -0.138149
H	 -3.900211	 1.137405	 0.459735
H	 -3.580878	 -0.166775	 1.564416
H	 -4.867876	 -0.486707	 -1.187777
H	 -4.549650	 -1.800049	 -0.072540
H	 -5.709585	 -0.556397	 0.346597

16 12 15 17 F
