%nprocshared=1
%mem=2GB
#HF/6-31G* nosymm scf=tight 

Mol

0 1
O	 -2.042549	 -1.228399	 -0.269030
C	 -1.653912	 -0.146171	 0.050137
C	 -0.332303	 0.024011	 0.778412
C	 -2.438579	 1.106236	 -0.272369
C	 0.845713	 -0.001731	 -0.208243
H	 -0.323783	 0.953829	 1.340327
H	 -0.235459	 -0.796807	 1.480410
C	 1.668490	 -1.287163	 -0.109584
H	 1.494604	 0.853779	 -0.029005
H	 0.455923	 0.109084	 -1.215678
C	 2.835303	 -1.319351	 -1.095848
H	 2.048062	 -1.396667	 0.904003
H	 1.019919	 -2.141583	 -0.288166
H	 3.520812	 -0.495137	 -0.920342
H	 2.483890	 -1.244409	 -2.120707
H	 3.398610	 -2.242696	 -1.005593
H	 -3.277823	 0.863061	 -0.908988
H	 -1.806773	 1.843019	 -0.759671
H	 -2.802853	 1.554979	 0.648059

11 8 5 9 F
5 3 2 4 F
