%nprocshared=4
%mem=2GB
#HF/cc-pVTZ nosymm scf=tight opt=ModRedundant

Mol

0 1
H	 2.614283	 2.028610	 0.296620
O	 3.358864	 1.662087	 -0.142800
C	 3.565468	 0.338079	 0.273842
C	 2.533667	 -0.637565	 -0.272227
H	 4.548038	 0.064914	 -0.086598
H	 3.593945	 0.282242	 1.360360
C	 1.114816	 -0.402372	 0.240993
H	 2.544552	 -0.580764	 -1.356576
H	 2.850574	 -1.642962	 -0.005497
C	 0.113298	 -1.420414	 -0.302504
H	 0.796373	 0.598427	 -0.031033
H	 1.113377	 -0.446476	 1.328807
C	 -0.789698	 -0.903446	 -1.423930
H	 0.650885	 -2.298948	 -0.650937
H	 -0.515713	 -1.756910	 0.516999
C	 -0.074003	 -0.585010	 -2.735464
H	 -1.552501	 -1.651990	 -1.619740
H	 -1.318674	 -0.017892	 -1.078770
C	 -1.029014	 -0.168655	 -3.851265
H	 0.490989	 -1.457716	 -3.055836
H	 0.651846	 0.207856	 -2.582137
C	 -0.317395	 0.153622	 -5.161085
H	 -1.751240	 -0.962663	 -4.020141
H	 -1.600299	 0.698044	 -3.529507
H	 0.237570	 -0.704202	 -5.526308
H	 -1.023419	 0.442444	 -5.931292
H	 0.385582	 0.970398	 -5.034386

14 10 7 4 F
