%nprocshared=4
%mem=2GB
#HF/cc-pVTZ nosymm scf=tight opt=ModRedundant

Mol

0 1
H	 -3.498985	 1.253143	 -1.010443
O	 -3.458596	 0.315260	 -0.960865
C	 -3.176635	 -0.080824	 0.355601
C	 -1.763371	 0.265266	 0.799691
H	 -3.321825	 -1.153438	 0.379502
H	 -3.895468	 0.357385	 1.043382
C	 -1.095212	 -0.821671	 1.636622
H	 -1.157878	 0.475478	 -0.080680
H	 -1.805331	 1.192130	 1.366745
C	 -1.744092	 -1.010434	 3.005305
H	 -0.045133	 -0.581648	 1.761667
H	 -1.129727	 -1.760573	 1.089104
C	 -3.266530	 -1.110617	 2.933225
H	 -1.335263	 -1.903186	 3.468709
H	 -1.471540	 -0.178931	 3.651970
C	 -3.976047	 0.171658	 2.494815
H	 -3.651688	 -1.418760	 3.902529
H	 -3.529193	 -1.903588	 2.238369
C	 -3.861188	 1.333224	 3.479049
H	 -5.027571	 -0.052753	 2.344106
H	 -3.591432	 0.480962	 1.526402
H	 -4.233151	 1.051113	 4.458913
H	 -4.441111	 2.183777	 3.139209
H	 -2.836802	 1.665231	 3.597414

7 4 3 2 F
