%nprocshared=1
%mem=2GB
#HF/6-31G* nosymm scf=tight 

Mol

0 1
O	 2.862325	 1.357334	 0.000267
C	 2.843464	 0.164689	 -0.000222
C	 1.546494	 -0.624492	 -0.000609
C	 4.124123	 -0.644674	 -0.000428
C	 0.291004	 0.242674	 0.000989
H	 1.557904	 -1.283758	 -0.867573
H	 1.558622	 -1.285963	 0.864672
C	 -0.994322	 -0.586602	 0.000262
H	 0.309117	 0.896430	 -0.865270
H	 0.309661	 0.894078	 0.869017
C	 -2.259874	 0.272531	 0.000494
H	 -1.004862	 -1.240012	 -0.870939
H	 -1.005220	 -1.241071	 0.870675
C	 -3.104032	 0.106534	 1.265348
H	 -2.864076	 0.022685	 -0.869872
H	 -1.983601	 1.319434	 -0.112044
C	 -4.366571	 0.967710	 1.258050
H	 -3.381807	 -0.939369	 1.378273
H	 -2.501590	 0.357455	 2.135958
H	 -5.007169	 0.717003	 0.417259
H	 -4.943928	 0.827852	 2.166785
H	 -4.120702	 2.023092	 1.181485
H	 4.165367	 -1.288615	 -0.874074
H	 4.976217	 0.020734	 -0.001915
H	 4.166763	 -1.286207	 0.874930

9 5 8 12 F
15 11 14 18 F
1 2 3 6 F
9 5 3 6 F
