%nprocshared=1
%mem=2GB
#HF/6-31G* nosymm scf=tight 

Mol

0 1
H	 -3.161837	 0.500524	 -0.000234
C	 -2.367097	 -0.232926	 -0.000000
O	 -1.158440	 0.455814	 -0.000122
H	 -2.468853	 -0.861886	 -0.882833
H	 -2.468942	 -0.861421	 0.883154
C	 -0.029776	 -0.365156	 0.000148
C	 -0.433060	 -1.752781	 0.467611
H	 0.735283	 0.048686	 0.658418
H	 0.399848	 -0.413000	 -1.001372
C	 0.745989	 -2.724214	 0.499893
H	 -0.876187	 -1.668083	 1.455096
H	 -1.209232	 -2.126615	 -0.193074
H	 1.524650	 -2.380283	 1.175039
H	 0.429782	 -3.705874	 0.836348
H	 1.189778	 -2.841574	 -0.484832

6 3 2 4 F
11 7 6 8 F
