%nprocshared=4
%mem=2GB
#HF/cc-pVTZ nosymm scf=tight opt=ModRedundant

Mol

0 1
O	 3.219313	 0.959291	 -0.614106
C	 2.698710	 0.058177	 -0.050237
C	 1.246364	 -0.005813	 0.348416
O	 3.344101	 -1.038700	 0.312317
C	 0.453207	 1.232821	 -0.049003
H	 0.839270	 -0.907818	 -0.092281
H	 1.216683	 -0.160521	 1.422434
C	 -0.998367	 1.217982	 0.432195
H	 0.481498	 1.345443	 -1.127236
H	 0.951413	 2.105557	 0.354893
C	 -1.882951	 0.151251	 -0.211235
H	 -1.429490	 2.193659	 0.228843
H	 -1.019755	 1.099323	 1.513279
C	 -1.098181	 -0.834169	 -1.073134
H	 -2.407971	 -0.394475	 0.569411
H	 -2.648146	 0.619263	 -0.823589
C	 -1.972590	 -1.900960	 -1.725929
H	 -0.338644	 -1.318078	 -0.463810
H	 -0.563389	 -0.287914	 -1.846741
C	 -1.181245	 -2.882611	 -2.583782
H	 -2.507451	 -2.447770	 -0.954150
H	 -2.730553	 -1.419009	 -2.337544
H	 -1.831032	 -3.625459	 -3.032043
H	 -0.437644	 -3.407241	 -1.993079
H	 -0.661745	 -2.370180	 -3.386740
C	 4.720529	 -1.114346	 0.001449
H	 4.874321	 -1.055557	 -1.065852
H	 5.057824	 -2.067950	 0.373977
H	 5.264321	 -0.313596	 0.480350

15 11 8 5 F
