%nprocshared=1
%mem=2GB
#HF/6-31G* nosymm scf=tight 

Mol

0 1
O	 -2.042549	 -1.228399	 -0.269030
C	 -1.653912	 -0.146171	 0.050137
C	 -0.332303	 0.024011	 0.778412
C	 -2.438579	 1.106236	 -0.272369
C	 -0.498179	 0.921690	 2.014750
H	 0.067201	 -0.942163	 1.073855
H	 0.366943	 0.482886	 0.088187
C	 0.817768	 1.144499	 2.761524
H	 -1.225772	 0.481335	 2.694292
H	 -0.907024	 1.876203	 1.697115
C	 0.657423	 2.044125	 3.986338
H	 1.226349	 0.184206	 3.068647
H	 1.544517	 1.583907	 2.082316
H	 -0.038688	 1.614289	 4.700986
H	 0.280817	 3.023481	 3.706208
H	 1.606123	 2.186891	 4.493894
H	 -3.277823	 0.863061	 -0.908988
H	 -1.806773	 1.843019	 -0.759671
H	 -2.802853	 1.554979	 0.648059

11 8 5 9 F
9 5 3 2 F
