%nprocshared=4
%mem=2GB
#HF/6-31G* nosymm scf=tight opt=ModRedundant

Mol

0 1
O	 1.178160	 1.259368	 -0.340544
C	 1.122059	 0.121804	 -0.000188
C	 -0.118406	 -0.590706	 0.480925
O	 2.172624	 -0.688929	 0.000216
C	 -1.358517	 0.297587	 0.500941
H	 -0.264528	 -1.456357	 -0.159428
H	 0.097702	 -0.987448	 1.469180
C	 -2.600104	 -0.448335	 0.992296
H	 -1.534949	 0.689231	 -0.496050
H	 -1.172006	 1.159125	 1.134558
C	 -3.846998	 0.434650	 1.016727
H	 -2.781975	 -1.311005	 0.354487
H	 -2.416974	 -0.840857	 1.990524
H	 -4.076671	 0.815189	 0.025720
H	 -4.712538	 -0.118054	 1.368343
H	 -3.709289	 1.288340	 1.673910
C	 3.452279	 -0.082609	 0.000533
H	 3.583069	 0.529321	 -0.880332
H	 4.163299	 -0.894027	 0.001117
H	 3.582335	 0.529955	 0.881077

1 2 4 17 F
