%nprocshared=4
%mem=2GB
#HF/cc-pVTZ nosymm scf=tight opt=ModRedundant

Mol

0 1
H	 2.867672	 -0.456275	 0.875795
C	 2.403497	 -0.020426	 0.000000
N	 0.989899	 -0.304564	 0.000000
H	 2.867672	 -0.456275	 -0.875795
H	 2.620366	 1.051270	 0.000000
C	 0.218958	 0.722753	 0.669205
C	 0.687781	 -1.609662	 0.550465
H	 0.508546	 0.818944	 1.720218
H	 0.403989	 1.676845	 0.189413
C	 -1.260410	 0.398211	 0.589283
H	 1.216804	 -2.366940	 -0.016449
H	 1.012632	 -1.688904	 1.592548
C	 -0.803632	 -1.874275	 0.473595
H	 -1.836446	 1.109793	 1.164140
H	 -1.587767	 0.446510	 -0.447348
O	 -1.528538	 -0.867574	 1.115630
H	 -1.049493	 -2.805333	 0.964828
H	 -1.107352	 -1.943571	 -0.569023

6 3 2 5 F
