%nprocshared=4
%mem=2GB
#HF/cc-pVTZ nosymm scf=tight opt=ModRedundant

Mol

0 1
O	 3.024739	 -2.259529	 -1.102095
C	 2.574127	 -2.072921	 -0.023620
C	 3.325395	 -1.510158	 1.155880
O	 1.317782	 -2.342573	 0.292610
C	 4.779552	 -1.177463	 0.846049
H	 2.773115	 -0.641962	 1.494665
H	 3.253744	 -2.238939	 1.957175
C	 4.958577	 -0.248200	 -0.355308
H	 5.330680	 -2.097305	 0.684126
H	 5.221363	 -0.715378	 1.720287
C	 4.047532	 0.978289	 -0.366646
H	 4.773423	 -0.825033	 -1.256500
H	 5.996155	 0.073475	 -0.412202
C	 4.034453	 1.724108	 0.965033
H	 4.371594	 1.655497	 -1.153567
H	 3.031019	 0.687006	 -0.614418
C	 3.367441	 0.942147	 2.093043
H	 3.523302	 2.675453	 0.838518
H	 5.055572	 1.964543	 1.252041
C	 3.356676	 1.694449	 3.419581
H	 2.346965	 0.701349	 1.807798
H	 3.878912	 -0.007829	 2.222653
H	 2.876923	 1.112156	 4.197884
H	 2.821269	 2.634031	 3.332210
H	 4.365274	 1.920095	 3.749763
C	 0.824678	 -3.623490	 -0.043565
H	 -0.139967	 -3.792406	 0.411591
H	 1.544729	 -4.329140	 0.337866
H	 0.731980	 -3.727573	 -1.114467

1 2 4 26 F
