%nprocshared=1
%mem=2GB
#HF/6-31G* nosymm scf=tight opt=ModRedundant

Mol

0 1
O	 3.225979	 0.970355	 -0.599647
C	 2.701189	 0.057885	 -0.047330
C	 1.245376	 -0.013843	 0.345420
O	 3.347903	 -1.046386	 0.304773
C	 0.455112	 1.231400	 -0.050772
H	 0.838542	 -0.913825	 -0.103701
H	 1.208210	 -0.175333	 1.419774
C	 -0.998893	 1.219485	 0.433193
H	 0.482531	 1.345121	 -1.130325
H	 0.957290	 2.103070	 0.354729
C	 -1.883438	 0.145884	 -0.207175
H	 -1.431207	 2.195402	 0.224832
H	 -1.019646	 1.105716	 1.516076
C	 -1.641530	 -0.005455	 -1.710364
H	 -1.700196	 -0.808424	 0.284289
H	 -2.933160	 0.377891	 -0.042162
C	 -2.523718	 -1.071928	 -2.361910
H	 -0.595130	 -0.251086	 -1.883412
H	 -1.814195	 0.951191	 -2.200992
C	 -2.273240	 -1.219445	 -3.862310
H	 -2.353171	 -2.028328	 -1.872161
H	 -3.570108	 -0.825818	 -2.193748
H	 -2.913044	 -1.982236	 -4.295215
H	 -1.242843	 -1.499783	 -4.062031
H	 -2.468588	 -0.287802	 -4.385907
C	 4.728119	 -1.109107	 -0.004993
H	 4.882018	 -1.033965	 -1.071845
H	 5.068212	 -2.067527	 0.355250
H	 5.265056	 -0.311663	 0.488280

15 11 8 5 F
