%nprocshared=1
%mem=2GB
#HF/6-31G* nosymm scf=tight 

Mol

0 1
H	 3.877244	 0.391579	 -0.376766
N	 3.080823	 -0.215241	 -0.344700
C	 1.860385	 0.546470	 -0.121423
H	 3.236585	 -0.857576	 0.408941
C	 0.640605	 -0.367589	 -0.170280
H	 1.785092	 1.287343	 -0.911548
H	 1.864120	 1.095752	 0.823391
C	 -0.679275	 0.379305	 0.025956
H	 0.639628	 -0.887509	 -1.123966
H	 0.738941	 -1.133570	 0.598445
C	 -1.903357	 -0.536963	 -0.023547
H	 -0.776767	 1.146962	 -0.740234
H	 -0.663379	 0.902814	 0.980698
C	 -3.225172	 0.228290	 0.028445
H	 -1.867824	 -1.134999	 -0.931459
H	 -1.860449	 -1.239604	 0.805977
H	 -3.313397	 0.915643	 -0.808262
H	 -4.073500	 -0.448134	 -0.008893
H	 -3.306061	 0.809945	 0.942516

6 3 5 9 F
12 8 5 9 F
1 2 3 6 F
