%nprocshared=1
%mem=2GB
#HF/6-31G* nosymm scf=tight opt=ModRedundant

Mol

0 1
O	 -0.620152	 -0.032964	 0.386291
C	 0.486307	 0.169203	 0.000779
C	 1.608116	 -0.841643	 0.000302
O	 0.887990	 1.334479	 -0.487474
C	 2.990107	 -0.200498	 -0.000684
H	 1.468623	 -1.481519	 -0.865924
H	 1.469683	 -1.481289	 0.866878
H	 3.129736	 0.423364	 -0.875135
H	 3.757882	 -0.966877	 -0.001197
H	 3.130964	 0.423383	 0.873533
C	 -0.068433	 2.387616	 -0.547121
C	 0.626148	 3.598817	 -1.132665
H	 -0.440265	 2.582974	 0.449453
H	 -0.903373	 2.071529	 -1.157494
H	 1.463112	 3.899463	 -0.512777
H	 -0.069847	 4.428996	 -1.196248
H	 0.997462	 3.385342	 -2.128561

4 2 3 6 F
