%nprocshared=1
%mem=2GB
#HF/6-31G* nosymm scf=tight opt=ModRedundant

Mol

0 1
H	 1.136379	 0.211822	 1.465562
C	 1.135357	 0.094285	 0.374742
C	 0.065331	 0.871482	 -0.349150
O	 1.941633	 -0.601957	 -0.151457
C	 0.079299	 2.363667	 0.012332
H	 -0.894570	 0.419032	 -0.128264
H	 0.251657	 0.759029	 -1.416295
C	 -0.309707	 2.637195	 1.465700
H	 -0.605065	 2.884606	 -0.649694
H	 1.066531	 2.774751	 -0.187732
H	 -1.307385	 2.265177	 1.677284
H	 -0.299470	 3.701965	 1.674211
H	 0.372350	 2.158482	 2.162136

6 3 2 4 F
