%nprocshared=1
%mem=2GB
#HF/6-31G* nosymm scf=tight opt=ModRedundant

Mol

0 1
H	 -3.135461	 -1.215070	 0.001379
O	 -2.310168	 -0.871793	 -0.309793
C	 -2.026376	 0.340750	 0.341611
C	 -0.673256	 0.843270	 -0.132153
H	 -2.792215	 1.080697	 0.115987
H	 -2.013526	 0.200402	 1.421792
C	 0.486613	 -0.083066	 0.235839
H	 -0.715586	 0.970948	 -1.210718
H	 -0.508072	 1.829858	 0.297090
C	 0.080684	 -1.557171	 0.281132
H	 0.887596	 0.214628	 1.199221
H	 1.291017	 0.045073	 -0.487595
C	 1.241133	 -2.483442	 0.643145
H	 -0.722141	 -1.686714	 1.003910
H	 -0.327634	 -1.851440	 -0.683817
H	 1.648694	 -2.236414	 1.619240
H	 0.923597	 -3.521419	 0.669954
H	 2.047571	 -2.402916	 -0.080515

10 7 4 8 F
