%nprocshared=4
%mem=2GB
#HF/cc-pVTZ nosymm scf=tight opt=ModRedundant

Mol

0 1
H	 6.305704	 -8.448241	 -3.961051
O	 6.547267	 -7.830274	 -3.296525
C	 7.221597	 -6.740678	 -3.868655
C	 6.312111	 -5.811655	 -4.658868
H	 7.662210	 -6.199134	 -3.042477
H	 8.038496	 -7.088125	 -4.498264
C	 5.024471	 -5.427854	 -3.933245
H	 6.870208	 -4.915328	 -4.912411
H	 6.063757	 -6.304578	 -5.595748
C	 4.070041	 -6.608279	 -3.758609
H	 4.524763	 -4.637505	 -4.483373
H	 5.270584	 -5.020394	 -2.954117
C	 2.795071	 -6.297696	 -2.972324
H	 3.801852	 -6.998253	 -4.737497
H	 4.600520	 -7.408516	 -3.250001
C	 3.009841	 -5.968591	 -1.496077
H	 2.299680	 -5.454395	 -3.445568
H	 2.108085	 -7.136722	 -3.057413
C	 3.483501	 -7.168232	 -0.679428
H	 2.079849	 -5.593801	 -1.074040
H	 3.735220	 -5.167141	 -1.393575
C	 4.787405	 -7.768073	 -1.195101
H	 3.610487	 -6.868801	 0.357294
H	 2.710250	 -7.931867	 -0.682378
H	 5.589371	 -7.037552	 -1.174452
H	 5.096164	 -8.614511	 -0.592342
H	 4.682460	 -8.112344	 -2.218729

20 16 19 22 F
