%nprocshared=1
%mem=2GB
#HF/6-31G* nosymm scf=tight 

Mol

0 1
H	 -1.492433	 -0.280027	 0.297401
N	 -0.626943	 -0.667432	 -0.000092
C	 -0.603740	 -2.052360	 -0.412588
C	 0.469286	 0.129090	 0.000148
H	 -0.913465	 -2.704173	 0.397484
H	 0.405469	 -2.302439	 -0.696640
H	 -1.259328	 -2.216392	 -1.261310
C	 1.788933	 -0.616240	 -0.000037
O	 0.411098	 1.327768	 -0.000049
H	 1.872803	 -1.245775	 -0.880381
H	 2.595421	 0.101576	 0.003713
H	 1.870096	 -1.252171	 0.875943

4 2 3 5 F
