%nprocshared=4
%mem=2GB
#HF/cc-pVTZ nosymm scf=tight opt=ModRedundant

Mol

0 1
H	 -3.268214	 -0.875720	 0.463107
C	 -2.806015	 0.000007	 0.024886
N	 -1.391133	 0.000016	 0.301321
H	 -3.029448	 0.000055	 -1.045738
H	 -3.268126	 0.875758	 0.463150
C	 -1.073152	 0.669031	 1.544255
C	 -0.616953	 0.548357	 -0.791153
H	 -1.364604	 1.723114	 1.515710
H	 -1.627267	 0.198221	 2.347610
C	 0.412165	 0.575208	 1.839284
H	 -0.838015	 -0.010545	 -1.692734
H	 -0.877302	 1.594215	 -0.978897
C	 0.868365	 0.454534	 -0.496124
H	 0.633228	 1.134109	 2.740865
H	 0.672515	 -0.470650	 2.027028
N	 1.186345	 1.123549	 0.746810
H	 1.422479	 0.925344	 -1.299479
H	 1.159816	 -0.599549	 -0.467579
C	 2.601227	 1.123558	 1.023245
H	 2.801295	 1.685955	 1.926708
H	 3.136609	 1.597291	 0.209915
H	 3.008159	 0.116937	 1.154700

6 3 2 4 F
