%nprocshared=4
%mem=2GB
#HF/6-31G* nosymm scf=tight opt=ModRedundant

Mol

0 1
H	 0.464437	 1.696384	 4.613890
C	 -0.149164	 0.789529	 4.545120
C	 -1.124128	 0.765429	 3.395566
O	 -0.018688	 -0.081720	 5.342398
C	 -0.452639	 1.064093	 2.047917
H	 -1.620980	 -0.197793	 3.388530
H	 -1.875885	 1.527427	 3.597743
C	 0.527923	 -0.022881	 1.600384
H	 -1.227518	 1.182532	 1.296372
H	 0.062155	 2.021935	 2.105213
C	 1.180775	 0.282413	 0.250794
H	 0.002842	 -0.974113	 1.542968
H	 1.303667	 -0.152573	 2.352674
C	 2.148627	 -0.814315	 -0.201312
H	 0.401222	 0.421140	 -0.494045
H	 1.715484	 1.229174	 0.314924
C	 3.580890	 -0.659131	 0.322722
H	 2.166869	 -0.852443	 -1.289387
H	 1.762857	 -1.776509	 0.128956
C	 4.324889	 0.564933	 -0.213704
H	 4.142010	 -1.551473	 0.056605
H	 3.564836	 -0.624694	 1.410140
H	 4.342616	 0.565491	 -1.300421
H	 3.866655	 1.493402	 0.110242
H	 5.353900	 0.572371	 0.132816

8 11 14 18 F
