%nprocshared=4
%mem=2GB
#HF/cc-pVTZ nosymm scf=tight opt=ModRedundant

Mol

0 1
O	 0.623971	 1.347241	 -0.000777
C	 0.485107	 0.171416	 -0.000134
C	 1.606966	 -0.836201	 0.000174
O	 -0.695554	 -0.422406	 0.000602
C	 2.988788	 -0.202529	 -0.000115
H	 1.465110	 -1.474645	 -0.864821
H	 1.465209	 -1.474077	 0.865596
H	 3.131767	 0.419673	 -0.873407
H	 3.750876	 -0.972315	 0.000098
H	 3.131883	 0.420264	 0.872742
C	 -0.925169	 -1.442437	 -0.961220
C	 -2.329437	 -1.961208	 -0.757758
H	 -0.190316	 -2.224034	 -0.829144
H	 -0.794067	 -1.029842	 -1.951624
H	 -2.449045	 -2.370821	 0.237372
H	 -2.538028	 -2.743607	 -1.477879
H	 -3.056245	 -1.169869	 -0.891559

11 4 2 3 F
