%nprocshared=1
%mem=2GB
#HF/6-31G* nosymm scf=tight 

Mol

0 1
H	 3.893188	 0.355400	 -0.101367
N	 3.092854	 -0.246221	 -0.068770
C	 1.865559	 0.531981	 0.018834
H	 3.199514	 -0.826043	 0.741946
C	 0.645745	 -0.382037	 -0.029944
H	 1.841966	 1.207024	 -0.831236
H	 1.815756	 1.155410	 0.915079
C	 -0.679275	 0.379305	 0.025956
H	 0.698998	 -0.976915	 -0.937203
H	 0.693479	 -1.083846	 0.802235
C	 -0.806595	 1.277747	 1.257608
H	 -1.504373	 -0.331298	 0.015621
H	 -0.789178	 0.986038	 -0.871620
C	 -2.133818	 2.033453	 1.311454
H	 -0.698428	 0.673525	 2.155622
H	 0.015164	 1.990650	 1.269255
H	 -2.975293	 1.346676	 1.335411
H	 -2.194168	 2.660758	 2.195451
H	 -2.256077	 2.674025	 0.442483

6 3 5 9 F
12 8 11 15 F
1 2 3 6 F
