%nprocshared=4
%mem=2GB
#HF/6-31G* nosymm scf=tight opt=ModRedundant

Mol

0 1
O	 0.333859	 1.025570	 0.811420
C	 0.486307	 0.169203	 0.000779
C	 1.608116	 -0.841643	 0.000302
O	 -0.325487	 -0.011948	 -1.031587
C	 2.990107	 -0.200498	 -0.000684
H	 1.468623	 -1.481519	 -0.865924
H	 1.469683	 -1.481289	 0.866878
H	 3.129736	 0.423364	 -0.875135
H	 3.757882	 -0.966877	 -0.001197
H	 3.130964	 0.423383	 0.873533
C	 -1.433207	 0.873317	 -1.160674
C	 -2.197076	 0.466280	 -2.402905
H	 -1.066860	 1.888390	 -1.231375
H	 -2.046663	 0.802320	 -0.272855
H	 -1.567374	 0.537620	 -3.282418
H	 -3.053727	 1.118203	 -2.540002
H	 -2.552644	 -0.554378	 -2.318730

4 2 3 6 F
