%nprocshared=4
%mem=2GB
#HF/cc-pVTZ nosymm scf=tight opt=ModRedundant

Mol

0 1
H	 0.366869	 4.316865	 -1.893806
C	 1.293819	 4.517481	 -1.339367
C	 1.234243	 4.200704	 0.130324
O	 2.235283	 4.959219	 -1.901347
C	 0.730555	 2.781822	 0.410948
H	 2.213829	 4.368465	 0.558812
H	 0.547685	 4.917976	 0.574692
C	 1.692148	 1.688117	 -0.048761
H	 0.556925	 2.684257	 1.477096
H	 -0.236450	 2.642318	 -0.066162
C	 1.181757	 0.280428	 0.247371
H	 2.653424	 1.833902	 0.436832
H	 1.877162	 1.785152	 -1.115429
C	 2.151032	 -0.811012	 -0.202643
H	 0.990894	 0.192423	 1.312346
H	 0.224384	 0.134389	 -0.248014
C	 3.580021	 -0.656538	 0.320835
H	 2.170545	 -0.847575	 -1.289412
H	 1.766632	 -1.772905	 0.124928
C	 4.327657	 0.562694	 -0.213579
H	 4.138806	 -1.549270	 0.057813
H	 3.561991	 -0.620783	 1.406976
H	 4.355973	 0.557257	 -1.298551
H	 3.867136	 1.491650	 0.100501
H	 5.351524	 0.571613	 0.142204

8 11 14 18 F
