%nprocshared=1
%mem=2GB
#HF/6-31G* nosymm scf=tight 

Mol

0 1
H	 2.591676	 2.013956	 0.335017
O	 3.341076	 1.666752	 -0.126416
C	 3.569581	 0.339145	 0.272707
C	 2.539767	 -0.640285	 -0.279495
H	 4.553106	 0.084646	 -0.100901
H	 3.608576	 0.269204	 1.359154
C	 3.098532	 -2.036815	 -0.562967
H	 1.718358	 -0.712663	 0.428611
H	 2.131279	 -0.221013	 -1.197490
C	 2.054320	 -2.980171	 -1.166721
H	 3.481247	 -2.462491	 0.360447
H	 3.944549	 -1.956584	 -1.245725
C	 2.584117	 -4.367009	 -1.549259
H	 1.226235	 -3.091184	 -0.469011
H	 1.639251	 -2.512618	 -2.057120
C	 3.028084	 -5.235408	 -0.368897
H	 1.802101	 -4.893710	 -2.092264
H	 3.412876	 -4.255310	 -2.246768
C	 3.448541	 -6.644910	 -0.790747
H	 2.214458	 -5.304867	 0.351727
H	 3.857214	 -4.762992	 0.152321
C	 3.898267	 -7.511782	 0.384814
H	 2.619058	 -7.130570	 -1.300238
H	 4.254911	 -6.577267	 -1.518123
H	 3.102061	 -7.625703	 1.115089
H	 4.187749	 -8.504443	 0.053970
H	 4.751192	 -7.071292	 0.893589

14 10 7 4 F
14 10 13 16 F
10 7 4 8 F
10 13 16 20 F
20 16 19 22 F
4 3 2 1 F
