%nprocshared=1
%mem=2GB
#HF/6-31G* nosymm scf=tight 

Mol

0 1
H	 3.276176	 0.174363	 -0.109463
N	 2.434251	 -0.367735	 -0.081097
C	 1.267428	 0.496480	 0.024474
H	 2.501951	 -0.965776	 0.720575
C	 -0.016086	 -0.325158	 -0.029487
H	 1.288818	 1.183521	 -0.816092
H	 1.267576	 1.109062	 0.929528
C	 -1.282277	 0.529072	 0.046735
H	 -0.012495	 -0.908639	 -0.945788
H	 -0.015903	 -1.041248	 0.791956
C	 -2.339745	 -0.057586	 0.981238
H	 -1.704394	 0.637432	 -0.950292
H	 -1.025093	 1.532537	 0.379708
H	 -2.644169	 -1.047829	 0.654950
H	 -3.226637	 0.567612	 1.013990
H	 -1.960258	 -0.146943	 1.995252

6 3 5 9 F
1 2 3 6 F
