%nprocshared=4
%mem=2GB
#HF/6-31G* nosymm scf=tight opt=ModRedundant

Mol

0 1
H	 -2.008675	 0.885633	 4.202088
C	 -1.350564	 0.773322	 3.358844
C	 -1.315374	 1.749611	 2.374583
C	 -0.540469	 -0.346879	 3.259703
H	 -1.944155	 2.617885	 2.452688
C	 -0.468917	 1.604497	 1.290639
H	 -0.569111	 -1.102637	 4.023651
C	 0.307629	 -0.494260	 2.175553
H	 -0.428471	 2.349839	 0.519600
C	 0.345236	 0.482435	 1.187416
H	 0.936248	 -1.359497	 2.094777
C	 1.239129	 0.373821	 0.000060
O	 1.970282	 -0.730723	 0.000018
O	 1.298100	 1.190019	 -0.865505
C	 3.377318	 -0.566646	 -0.000065
H	 3.695437	 -0.028981	 -0.881264
H	 3.789299	 -1.563704	 0.000236
H	 3.695516	 -0.028316	 0.880770

10 12 13 15 F
