%nprocshared=1
%mem=2GB
#HF/6-31G* nosymm scf=tight opt=ModRedundant

Mol

0 1
O	 3.225979	 0.970355	 -0.599647
C	 2.701189	 0.057885	 -0.047330
C	 1.245376	 -0.013843	 0.345420
O	 3.347903	 -1.046386	 0.304773
C	 0.455112	 1.231400	 -0.050772
H	 0.838542	 -0.913825	 -0.103701
H	 1.208210	 -0.175333	 1.419774
C	 -0.998893	 1.219485	 0.433193
H	 0.482531	 1.345121	 -1.130325
H	 0.957290	 2.103070	 0.354729
C	 -1.648619	 -0.166036	 0.490629
H	 -1.581562	 1.848914	 -0.235417
H	 -1.058057	 1.687016	 1.414989
C	 -3.129187	 -0.113473	 0.872928
H	 -1.544738	 -0.650286	 -0.479181
H	 -1.123856	 -0.796636	 1.204729
C	 -3.787584	 -1.492726	 0.938538
H	 -3.664406	 0.505474	 0.154818
H	 -3.234671	 0.380270	 1.837703
C	 -5.266952	 -1.431156	 1.317195
H	 -3.682210	 -1.987912	 -0.024441
H	 -3.256659	 -2.111443	 1.659017
H	 -5.705251	 -2.423645	 1.355492
H	 -5.832250	 -0.847671	 0.595961
H	 -5.403352	 -0.971587	 2.292114
C	 4.728119	 -1.109107	 -0.004993
H	 4.882018	 -1.033965	 -1.071845
H	 5.068212	 -2.067527	 0.355250
H	 5.265056	 -0.311663	 0.488280

11 8 5 9 F
