%nprocshared=4
%mem=2GB
#HF/cc-pVTZ nosymm scf=tight opt=ModRedundant

Mol

0 1
H	 -3.562218	 0.456093	 0.264644
O	 -3.096013	 -0.305898	 -0.029257
C	 -1.770097	 -0.105146	 -0.008227
C	 -1.212328	 1.098235	 0.405540
C	 -0.958019	 -1.149629	 -0.417822
H	 -1.848891	 1.903926	 0.721888
C	 0.153835	 1.250841	 0.407580
H	 -1.408431	 -2.069278	 -0.733092
C	 0.408147	 -0.980659	 -0.409861
H	 0.596482	 2.174271	 0.724520
C	 0.981121	 0.213562	 0.000000
H	 1.039121	 -1.790315	 -0.727426
C	 2.447402	 0.371303	 0.000000
O	 3.227427	 -0.521847	 0.000000
H	 2.796538	 1.409525	 0.000000

7 11 13 14 F
