%nprocshared=1
%mem=2GB
#HF/6-31G* nosymm scf=tight 

Mol

0 1
H	 1.275169	 1.751947	 -3.618045
O	 2.193831	 1.528911	 -3.580790
C	 2.749562	 2.009217	 -2.383075
C	 2.314268	 1.214110	 -1.157086
H	 3.822426	 1.934010	 -2.505477
H	 2.512780	 3.064110	 -2.249232
C	 0.813848	 1.292756	 -0.864815
H	 2.604693	 0.176272	 -1.298198
H	 2.870077	 1.585049	 -0.297523
C	 0.417350	 0.529255	 0.401943
H	 0.263443	 0.897374	 -1.713987
H	 0.519801	 2.337124	 -0.759114
C	 -1.061682	 0.646471	 0.788033
H	 0.675869	 -0.521327	 0.282392
H	 1.019490	 0.896741	 1.230243
C	 -2.037799	 -0.007733	 -0.193645
H	 -1.196547	 0.190489	 1.766659
H	 -1.319875	 1.697682	 0.906902
C	 -3.489788	 0.042957	 0.286558
H	 -1.748131	 -1.045920	 -0.349760
H	 -1.972261	 0.476246	 -1.165124
C	 -4.216917	 1.317354	 -0.141063
H	 -4.025645	 -0.823308	 -0.095450
H	 -3.513059	 -0.038752	 1.371301
H	 -4.239342	 1.411634	 -1.223113
H	 -5.243387	 1.322503	 0.212445
H	 -3.726170	 2.201406	 0.256408

14 10 7 4 F
14 10 13 16 F
10 7 4 8 F
8 4 3 2 F
10 13 16 20 F
4 3 2 1 F
