%nprocshared=4
%mem=2GB
#HF/cc-pVTZ nosymm scf=tight opt=ModRedundant

Mol

0 1
O	 1.116925	 -0.333420	 0.223001
C	 0.029490	 0.077183	 0.000078
C	 -1.232113	 -0.748027	 0.000015
O	 -0.223529	 1.343740	 -0.284608
C	 -2.501422	 0.088592	 -0.000052
H	 -1.188777	 -1.400384	 -0.865133
H	 -1.188857	 -1.400312	 0.865225
H	 -2.548170	 0.725504	 -0.873205
H	 -3.371613	 -0.556398	 -0.000040
H	 -2.548215	 0.725571	 0.873047
C	 0.874457	 2.233080	 -0.318426
H	 1.365844	 2.268778	 0.642563
H	 0.466910	 3.200197	 -0.564224
H	 1.589024	 1.928001	 -1.068470

4 2 3 6 F
