%nprocshared=4
%mem=2GB
#HF/cc-pVTZ nosymm scf=tight opt=ModRedundant

Mol

0 1
H	 -3.436473	 1.252944	 -1.023892
O	 -3.458596	 0.315260	 -0.960865
C	 -3.176635	 -0.080824	 0.355601
C	 -1.763371	 0.265266	 0.799691
H	 -3.321825	 -1.153438	 0.379502
H	 -3.895468	 0.357385	 1.043382
C	 -0.673390	 -0.426948	 -0.013392
H	 -1.631049	 1.344913	 0.747560
H	 -1.664587	 -0.001624	 1.849167
C	 -1.122294	 -1.758545	 -0.609467
H	 0.196037	 -0.584278	 0.615303
H	 -0.354273	 0.236556	 -0.813662
C	 -0.028406	 -2.443717	 -1.426166
H	 -1.449275	 -2.411602	 0.193957
H	 -1.991606	 -1.595777	 -1.243233
C	 -0.454875	 -3.743220	 -2.111194
H	 0.826971	 -2.641966	 -0.784389
H	 0.320109	 -1.751843	 -2.188051
C	 -0.790469	 -4.887266	 -1.157422
H	 0.347627	 -4.063587	 -2.768561
H	 -1.310165	 -3.546430	 -2.752422
H	 0.045107	 -5.102696	 -0.499031
H	 -1.017433	 -5.792943	 -1.708312
H	 -1.649581	 -4.660374	 -0.537704

11 7 4 3 F
