%nprocshared=4
%mem=2GB
#HF/cc-pVTZ nosymm scf=tight opt=ModRedundant

Mol

0 1
H	 1.118078	 -1.584147	 0.694345
C	 0.490307	 -0.707127	 0.862238
N	 -0.537714	 -0.645117	 0.000000
O	 0.728458	 0.078550	 1.724046
C	 -1.522613	 0.412524	 0.000000
H	 -0.614845	 -1.370708	 -0.668994
H	 -2.150256	 0.356137	 -0.880771
H	 -1.005621	 1.357208	 0.000000
H	 -2.150256	 0.356137	 0.880771

6 3 5 7 F
