%nprocshared=1
%mem=2GB
#HF/6-31G* nosymm scf=tight 

Mol

0 1
O	 3.225979	 0.970355	 -0.599647
C	 2.701189	 0.057885	 -0.047330
C	 1.245376	 -0.013843	 0.345420
O	 3.347903	 -1.046386	 0.304773
C	 0.455112	 1.231400	 -0.050772
H	 0.838542	 -0.913825	 -0.103701
H	 1.208210	 -0.175333	 1.419774
C	 -0.998893	 1.219485	 0.433193
H	 0.482531	 1.345121	 -1.130325
H	 0.957290	 2.103070	 0.354729
C	 -1.883438	 0.145884	 -0.207175
H	 -1.431207	 2.195402	 0.224832
H	 -1.019646	 1.105716	 1.516076
C	 -3.116127	 -0.189393	 0.634886
H	 -2.202043	 0.485361	 -1.191586
H	 -1.310425	 -0.764374	 -0.368607
C	 -4.004699	 -1.264855	 0.007231
H	 -3.702612	 0.714614	 0.789944
H	 -2.798523	 -0.518707	 1.623005
C	 -5.235465	 -1.591087	 0.852505
H	 -4.322150	 -0.937830	 -0.980657
H	 -3.421372	 -2.170659	 -0.144524
H	 -5.844981	 -2.356212	 0.381676
H	 -5.858458	 -0.712312	 0.993329
H	 -4.950641	 -1.954039	 1.836078
C	 4.728119	 -1.109107	 -0.004993
H	 4.882018	 -1.033965	 -1.071845
H	 5.068212	 -2.067527	 0.355250
H	 5.265056	 -0.311663	 0.488280

21 17 14 11 F
17 14 11 15 F
6 3 5 9 F
11 8 5 9 F
2 4 26 27 F
1 2 4 26 F
6 3 2 1 F
