%nprocshared=4
%mem=2GB
#HF/cc-pVTZ nosymm scf=tight opt=ModRedundant

Mol

0 1
H	 2.614283	 2.028610	 0.296620
O	 3.358864	 1.662087	 -0.142800
C	 3.565468	 0.338079	 0.273842
C	 2.533667	 -0.637565	 -0.272227
H	 4.548038	 0.064914	 -0.086598
H	 3.593945	 0.282242	 1.360360
C	 2.751840	 -1.029374	 -1.731930
H	 2.536785	 -1.527623	 0.349822
H	 1.552631	 -0.180941	 -0.165171
C	 1.678739	 -1.983357	 -2.254624
H	 3.727977	 -1.490960	 -1.837277
H	 2.761850	 -0.131865	 -2.348100
C	 1.806129	 -2.351272	 -3.734038
H	 1.686941	 -2.891671	 -1.657023
H	 0.705285	 -1.527270	 -2.097017
C	 3.031629	 -3.191837	 -4.088074
H	 0.915005	 -2.899619	 -4.026853
H	 1.809403	 -1.441753	 -4.330627
C	 3.061590	 -3.616233	 -5.554157
H	 3.050951	 -4.079034	 -3.458807
H	 3.940067	 -2.640600	 -3.864734
C	 4.285765	 -4.452473	 -5.911916
H	 2.161404	 -4.180110	 -5.782821
H	 3.033785	 -2.731242	 -6.184300
H	 4.325111	 -5.361479	 -5.320818
H	 4.274432	 -4.738674	 -6.957414
H	 5.203003	 -3.902040	 -5.730117

8 4 3 2 F
