%nprocshared=4
%mem=2GB
#HF/cc-pVTZ nosymm scf=tight opt=ModRedundant

Mol

0 1
H	 -0.090124	 -3.721106	 0.262002
O	 0.248256	 -2.844530	 0.157842
C	 -0.774910	 -1.994980	 0.162114
C	 -0.318151	 -0.570512	 0.000144
O	 -1.893819	 -2.357952	 0.281542
C	 -1.454884	 0.441630	 -0.000560
H	 0.388896	 -0.368365	 0.798337
H	 0.254267	 -0.520732	 -0.920594
C	 -2.822577	 -0.232186	 0.000063
H	 -1.359760	 1.084704	 -0.867077
H	 -1.359641	 1.085996	 0.864983
H	 -2.954352	 -0.858985	 -0.875745
H	 -3.615886	 0.505352	 0.000019
H	 -2.953878	 -0.858359	 0.876394

7 4 6 10 F
