%nprocshared=1
%mem=2GB
#HF/6-31G* nosymm scf=tight opt=ModRedundant

Mol

0 1
H	 1.639206	 0.093695	 -3.696229
O	 1.790785	 -0.636258	 -4.278693
C	 2.148405	 -1.771500	 -3.532109
C	 0.978405	 -2.381679	 -2.768232
H	 2.529802	 -2.487124	 -4.249111
H	 2.961721	 -1.536100	 -2.846629
C	 0.392472	 -1.465203	 -1.691375
H	 0.202938	 -2.649119	 -3.481320
H	 1.319688	 -3.307700	 -2.308472
C	 -0.744027	 -2.126411	 -0.906523
H	 0.029086	 -0.553550	 -2.157427
H	 1.180797	 -1.170621	 -0.998478
C	 -1.309753	 -1.282496	 0.241564
H	 -1.548439	 -2.386631	 -1.592127
H	 -0.380245	 -3.066087	 -0.496192
C	 -2.037799	 -0.007733	 -0.193645
H	 -2.001796	 -1.899812	 0.810610
H	 -0.504491	 -1.021972	 0.926778
C	 -3.489788	 0.042957	 0.286558
H	 -2.017067	 0.064384	 -1.280144
H	 -1.513726	 0.868678	 0.179924
C	 -4.216917	 1.317354	 -0.141063
H	 -4.025645	 -0.823308	 -0.095450
H	 -3.513059	 -0.038752	 1.371301
H	 -4.239342	 1.411634	 -1.223113
H	 -5.243387	 1.322503	 0.212445
H	 -3.726170	 2.201406	 0.256408

10 13 16 20 F
