%nprocshared=1
%mem=2GB
#HF/6-31G* nosymm scf=tight opt=ModRedundant

Mol

0 1
H	 -3.420663	 1.227371	 -1.044276
O	 -3.452007	 0.283848	 -0.965577
C	 -3.181085	 -0.079926	 0.364119
C	 -1.765924	 0.277073	 0.805136
H	 -3.327791	 -1.152017	 0.410903
H	 -3.905698	 0.375695	 1.036898
C	 -1.289990	 1.635525	 0.288790
H	 -1.719195	 0.261066	 1.894412
H	 -1.092522	 -0.506368	 0.461668
C	 0.122378	 1.993968	 0.755602
H	 -1.987775	 2.403102	 0.609151
H	 -1.319939	 1.631124	 -0.799547
C	 0.594080	 3.352369	 0.229930
H	 0.147932	 1.987031	 1.842671
H	 0.818497	 1.222403	 0.428940
C	 2.037095	 3.716671	 0.597550
H	 -0.075537	 4.130598	 0.592791
H	 0.502970	 3.356450	 -0.854275
C	 2.277779	 3.929992	 2.093201
H	 2.307760	 4.627068	 0.068203
H	 2.708052	 2.942461	 0.230645
H	 1.611304	 4.690813	 2.490821
H	 3.296911	 4.256241	 2.276966
H	 2.120098	 3.020913	 2.664056

7 4 3 2 F
