%nprocshared=1
%mem=2GB
#HF/6-31G* nosymm scf=tight opt=ModRedundant

Mol

0 1
H	 -3.420663	 1.227371	 -1.044276
O	 -3.452007	 0.283848	 -0.965577
C	 -3.181085	 -0.079926	 0.364119
C	 -1.765924	 0.277073	 0.805136
H	 -3.327791	 -1.152017	 0.410903
H	 -3.905698	 0.375695	 1.036898
C	 -0.677594	 -0.417312	 -0.014550
H	 -1.637766	 1.358238	 0.744969
H	 -1.659588	 0.017670	 1.857098
C	 0.730975	 0.083679	 0.311212
H	 -0.881901	 -0.275212	 -1.071326
H	 -0.729330	 -1.489988	 0.164566
C	 1.815430	 -0.620176	 -0.508928
H	 0.773141	 1.156631	 0.139701
H	 0.931685	 -0.064094	 1.371628
C	 3.251209	 -0.215612	 -0.155343
H	 1.641717	 -0.435982	 -1.567981
H	 1.715415	 -1.694463	 -0.368494
C	 3.599382	 1.239053	 -0.476481
H	 3.934991	 -0.864803	 -0.696898
H	 3.428028	 -0.404342	 0.901690
H	 3.420294	 1.460498	 -1.525303
H	 4.646760	 1.438949	 -0.271839
H	 3.014482	 1.936845	 0.113555

11 7 4 3 F
