%nprocshared=4
%mem=2GB
#HF/6-31G* nosymm scf=tight opt=ModRedundant

Mol

0 1
O	 -0.646575	 -0.061975	 -0.276487
C	 0.486307	 0.169203	 0.000779
C	 1.608116	 -0.841643	 0.000302
O	 0.920657	 1.370333	 0.356076
C	 2.990107	 -0.200498	 -0.000684
H	 1.468623	 -1.481519	 -0.865924
H	 1.469683	 -1.481289	 0.866878
H	 3.129736	 0.423364	 -0.875135
H	 3.757882	 -0.966877	 -0.001197
H	 3.130964	 0.423383	 0.873533
C	 -0.032143	 2.427442	 0.401847
C	 0.700931	 3.680884	 0.830562
H	 -0.816552	 2.165075	 1.098590
H	 -0.480168	 2.540915	 -0.575900
H	 1.148468	 3.549184	 1.809094
H	 0.008846	 4.515348	 0.878883
H	 1.486689	 3.927209	 0.125463

4 2 3 6 F
