%nprocshared=4
%mem=2GB
#HF/cc-pVTZ nosymm scf=tight opt=ModRedundant

Mol

0 1
O	 -0.427360	 -1.392182	 -0.665010
C	 0.595354	 -1.297218	 -0.076775
C	 1.246364	 -0.005813	 0.348416
O	 1.317782	 -2.342573	 0.292610
C	 0.453207	 1.232821	 -0.049003
H	 1.394842	 -0.066917	 1.419758
H	 2.239873	 0.009843	 -0.088647
C	 -0.998367	 1.217982	 0.432195
H	 0.481498	 1.345443	 -1.127236
H	 0.951413	 2.105557	 0.354893
C	 -1.655019	 2.592373	 0.551619
H	 -1.024679	 0.736287	 1.405048
H	 -1.592325	 0.591453	 -0.229587
C	 -1.447706	 3.462155	 -0.685429
H	 -2.721013	 2.464015	 0.724975
H	 -1.266270	 3.118714	 1.418438
C	 -0.000673	 3.905541	 -0.881082
H	 -2.084785	 4.340690	 -0.617267
H	 -1.776720	 2.916891	 -1.567076
C	 0.198057	 4.775488	 -2.117801
H	 0.329437	 4.450701	 -0.000997
H	 0.637057	 3.028559	 -0.952197
H	 1.234838	 5.072307	 -2.227201
H	 -0.400111	 5.678856	 -2.060961
H	 -0.091021	 4.245792	 -3.019502
C	 0.824678	 -3.623490	 -0.043565
H	 -0.139967	 -3.792406	 0.411591
H	 1.544729	 -4.329140	 0.337866
H	 0.731980	 -3.727573	 -1.114467

11 8 5 9 F
