%nprocshared=1
%mem=2GB
#HF/6-31G* nosymm scf=tight 

Mol

0 1
O	 3.251039	 1.036032	 -0.439697
C	 2.701189	 0.057885	 -0.047330
C	 1.209899	 -0.106744	 0.119224
O	 3.347903	 -1.046386	 0.304773
C	 0.420228	 1.135974	 -0.285975
H	 0.919663	 -0.978995	 -0.457085
H	 1.027504	 -0.364154	 1.159498
C	 -1.085513	 1.022865	 -0.024352
H	 0.596250	 1.345911	 -1.336718
H	 0.812436	 1.987740	 0.259085
C	 -1.811265	 -0.024413	 -0.873825
H	 -1.534216	 1.995261	 -0.213653
H	 -1.255423	 0.812854	 1.030652
C	 -3.325595	 -0.022296	 -0.655196
H	 -1.599720	 0.159487	 -1.926084
H	 -1.426218	 -1.017549	 -0.653842
C	 -4.060719	 -1.068399	 -1.495073
H	 -3.721054	 0.965357	 -0.886255
H	 -3.537506	 -0.195470	 0.398751
C	 -5.572864	 -1.057133	 -1.273736
H	 -3.849244	 -0.897428	 -2.548491
H	 -3.669823	 -2.056739	 -1.262337
H	 -6.065532	 -1.809092	 -1.882376
H	 -5.999557	 -0.091816	 -1.531208
H	 -5.818617	 -1.259455	 -0.235013
C	 4.728119	 -1.109107	 -0.004993
H	 4.882018	 -1.033965	 -1.071845
H	 5.068212	 -2.067527	 0.355250
H	 5.265056	 -0.311663	 0.488280

21 17 14 11 F
17 14 11 15 F
15 11 8 5 F
6 3 5 9 F
11 8 5 9 F
2 4 26 27 F
6 3 2 1 F
