%nprocshared=4
%mem=2GB
#HF/cc-pVTZ nosymm scf=tight opt=ModRedundant

Mol

0 1
O	 -0.406316	 0.104456	 2.438929
C	 -0.846966	 0.612872	 1.465048
C	 -1.705041	 1.846597	 1.455975
O	 -0.637375	 0.157174	 0.243149
H	 -2.660144	 1.621661	 0.998917
H	 -1.849763	 2.193395	 2.466135
H	 -1.229463	 2.616125	 0.861651
C	 0.162530	 -1.009518	 0.097799
C	 1.587210	 -0.664190	 0.477086
H	 0.096803	 -1.356267	 -0.924704
H	 -0.233803	 -1.785900	 0.736810
C	 2.646503	 -1.482345	 -0.256592
H	 1.683641	 -0.821387	 1.547939
H	 1.750876	 0.394710	 0.301634
C	 4.065970	 -1.126420	 0.172415
H	 2.468899	 -2.539146	 -0.075687
H	 2.541951	 -1.330717	 -1.324732
H	 4.796701	 -1.723842	 -0.360037
H	 4.210488	 -1.296463	 1.234296
H	 4.284452	 -0.082578	 -0.026773

12 9 8 10 F
