%nprocshared=1
%mem=2GB
#HF/6-31G* nosymm scf=tight opt=ModRedundant

Mol

0 1
H	 -3.420663	 1.227371	 -1.044276
O	 -3.452007	 0.283848	 -0.965577
C	 -3.181085	 -0.079926	 0.364119
C	 -1.765924	 0.277073	 0.805136
H	 -3.327791	 -1.152017	 0.410903
H	 -3.905698	 0.375695	 1.036898
C	 -1.598950	 0.346532	 2.323627
H	 -1.070560	 -0.454222	 0.392054
H	 -1.499528	 1.233773	 0.359064
C	 -0.170274	 0.683203	 2.755732
H	 -1.899853	 -0.601371	 2.759113
H	 -2.281992	 1.095368	 2.721234
C	 -0.012304	 0.756793	 4.276823
H	 0.507662	 -0.062539	 2.347455
H	 0.125193	 1.636236	 2.318661
C	 1.381035	 1.178340	 4.757508
H	 -0.264352	 -0.209165	 4.711670
H	 -0.740659	 1.463924	 4.668335
C	 2.493433	 0.177685	 4.438656
H	 1.343685	 1.325771	 5.834151
H	 1.632000	 2.146231	 4.328083
H	 2.263605	 -0.803598	 4.845351
H	 3.436749	 0.499870	 4.868990
H	 2.645528	 0.065689	 3.370251

7 4 3 2 F
