%nprocshared=1
%mem=2GB
#HF/6-31G* nosymm scf=tight opt=ModRedundant

Mol

0 1
H	 -3.420663	 1.227371	 -1.044276
O	 -3.452007	 0.283848	 -0.965577
C	 -3.181085	 -0.079926	 0.364119
C	 -1.765924	 0.277073	 0.805136
H	 -3.327791	 -1.152017	 0.410903
H	 -3.905698	 0.375695	 1.036898
C	 -1.377677	 -0.324186	 2.156531
H	 -1.062210	 -0.052846	 0.040348
H	 -1.683248	 1.361880	 0.844893
C	 0.051733	 0.021462	 2.579017
H	 -1.496856	 -1.402488	 2.114450
H	 -2.073692	 0.030234	 2.915045
C	 0.431064	 -0.578937	 3.935378
H	 0.740747	 -0.326289	 1.813021
H	 0.164742	 1.104022	 2.622577
C	 1.823423	 -0.187404	 4.443505
H	 0.361821	 -1.664229	 3.880229
H	 -0.305539	 -0.266039	 4.672485
C	 2.981968	 -0.722993	 3.600104
H	 1.934509	 -0.555018	 5.460761
H	 1.892209	 0.896921	 4.504412
H	 2.931995	 -1.805000	 3.511207
H	 3.936426	 -0.473518	 4.053547
H	 2.980666	 -0.308243	 2.597536

7 4 3 2 F
