%nprocshared=4
%mem=2GB
#HF/cc-pVTZ nosymm scf=tight opt=ModRedundant

Mol

0 1
O	 3.219313	 0.959291	 -0.614106
C	 2.698710	 0.058177	 -0.050237
C	 1.246364	 -0.005813	 0.348416
O	 3.344101	 -1.038700	 0.312317
C	 0.453207	 1.232821	 -0.049003
H	 0.839270	 -0.907818	 -0.092281
H	 1.216683	 -0.160521	 1.422434
C	 -0.998367	 1.217982	 0.432195
H	 0.481498	 1.345443	 -1.127236
H	 0.951413	 2.105557	 0.354893
C	 -1.882951	 0.151251	 -0.211235
H	 -1.429490	 2.193659	 0.228843
H	 -1.019755	 1.099323	 1.513279
C	 -1.666314	 -1.239332	 0.379642
H	 -2.926344	 0.433429	 -0.090498
H	 -1.700236	 0.109105	 -1.280990
C	 -0.299504	 -1.833142	 0.051020
H	 -2.443262	 -1.908220	 0.017318
H	 -1.785592	 -1.193187	 1.459692
C	 -0.091329	 -3.223023	 0.643196
H	 -0.178937	 -1.880076	 -1.027860
H	 0.478202	 -1.167137	 0.414980
H	 0.887498	 -3.614956	 0.391661
H	 -0.832885	 -3.922032	 0.270919
H	 -0.171568	 -3.203565	 1.725042
C	 4.720529	 -1.114346	 0.001449
H	 4.874321	 -1.055557	 -1.065852
H	 5.057824	 -2.067950	 0.373977
H	 5.264321	 -0.313596	 0.480350

15 11 8 5 F
