%nprocshared=4
%mem=2GB
#HF/6-31G* nosymm scf=tight opt=ModRedundant

Mol

0 1
H	 2.591676	 2.013956	 0.335017
O	 3.341076	 1.666752	 -0.126416
C	 3.569581	 0.339145	 0.272707
C	 2.539767	 -0.640285	 -0.279495
H	 4.553106	 0.084646	 -0.100901
H	 3.608576	 0.269204	 1.359154
C	 3.077523	 -1.550472	 -1.386403
H	 2.165274	 -1.246201	 0.541473
H	 1.696618	 -0.066604	 -0.660751
C	 2.006170	 -2.484024	 -1.956933
H	 3.901567	 -2.140351	 -0.994791
H	 3.484379	 -0.939181	 -2.192091
C	 2.470796	 -3.357918	 -3.127733
H	 1.626036	 -3.121549	 -1.160750
H	 1.163912	 -1.881375	 -2.290273
C	 3.527226	 -4.406774	 -2.769493
H	 1.602138	 -3.867482	 -3.539549
H	 2.851523	 -2.719650	 -3.923659
C	 3.880918	 -5.321842	 -3.943797
H	 3.165029	 -5.012323	 -1.939895
H	 4.433889	 -3.920010	 -2.418315
C	 4.939917	 -6.365632	 -3.590684
H	 2.981200	 -5.824600	 -4.291978
H	 4.233847	 -4.717721	 -4.777081
H	 4.603297	 -7.007376	 -2.781316
H	 5.167355	 -6.999483	 -4.442236
H	 5.865688	 -5.893728	 -3.273482

8 4 3 2 F
