%nprocshared=4
%mem=2GB
#HF/cc-pVTZ nosymm scf=tight opt=ModRedundant

Mol

0 1
H	 -2.802625	 0.218443	 0.719794
C	 -2.464508	 1.154494	 0.281195
O	 -1.088677	 1.161023	 0.095215
H	 -2.929578	 1.272854	 -0.686580
H	 -2.785023	 1.971479	 0.925159
C	 -0.350988	 1.025955	 1.265346
C	 1.118133	 0.940811	 0.935529
H	 -0.517195	 1.883454	 1.917298
H	 -0.648392	 0.130449	 1.806687
O	 1.401606	 -0.295166	 0.366636
H	 1.378822	 1.747325	 0.253615
H	 1.693782	 1.075699	 1.851174
C	 2.714315	 -0.441627	 -0.061017
H	 2.765292	 -0.641548	 -1.128869
H	 3.305661	 0.447341	 0.150952
H	 3.143725	 -1.278506	 0.470147

7 10 13 14 F
