%nprocshared=4
%mem=2GB
#HF/cc-pVTZ nosymm scf=tight opt=ModRedundant

Mol

0 1
H	 -3.162190	 0.493205	 -0.000107
C	 -2.363908	 -0.234727	 0.000005
O	 -1.158738	 0.454634	 -0.000087
H	 -2.464314	 -0.863616	 -0.882153
H	 -2.464327	 -0.863359	 0.882345
C	 -0.028611	 -0.359694	 0.000037
C	 0.902118	 0.078252	 1.112844
H	 0.479495	 -0.294214	 -0.962344
H	 -0.318346	 -1.401294	 0.140625
C	 2.168552	 -0.767937	 1.179610
H	 1.157226	 1.121002	 0.959482
H	 0.365743	 0.022670	 2.053676
H	 2.733785	 -0.707262	 0.255534
H	 2.814547	 -0.433734	 1.982119
H	 1.937036	 -1.812869	 1.357335

8 6 3 2 F
