%nprocshared=1
%mem=2GB
#HF/6-31G* nosymm scf=tight 

Mol

0 1
H	 1.143950	 -1.992219	 -3.619581
O	 2.053787	 -1.735964	 -3.659603
C	 2.147214	 -0.365269	 -3.953746
C	 1.752433	 0.528923	 -2.783576
H	 3.183115	 -0.190126	 -4.214336
H	 1.547926	 -0.121935	 -4.830343
C	 0.286747	 0.393548	 -2.363688
H	 2.396788	 0.296897	 -1.939575
H	 1.954753	 1.561645	 -3.062717
C	 -0.091721	 1.342687	 -1.223199
H	 0.095358	 -0.632111	 -2.060772
H	 -0.355560	 0.592293	 -3.221757
C	 -1.570727	 1.308579	 -0.821057
H	 0.523020	 1.119738	 -0.353007
H	 0.160948	 2.358439	 -1.520027
C	 -2.037799	 -0.007733	 -0.193645
H	 -1.750617	 2.113728	 -0.111698
H	 -2.185234	 1.531086	 -1.692096
C	 -3.489788	 0.042957	 0.286558
H	 -1.390820	 -0.254184	 0.647064
H	 -1.932436	 -0.820881	 -0.907782
C	 -4.216917	 1.317354	 -0.141063
H	 -4.025645	 -0.823308	 -0.095450
H	 -3.513059	 -0.038752	 1.371301
H	 -4.239342	 1.411634	 -1.223113
H	 -5.243387	 1.322503	 0.212445
H	 -3.726170	 2.201406	 0.256408

14 10 7 4 F
14 10 13 16 F
10 7 4 8 F
8 4 3 2 F
10 13 16 20 F
4 3 2 1 F
