%nprocshared=4
%mem=2GB
#HF/6-31G* nosymm scf=tight opt=ModRedundant

Mol

0 1
H	 -3.135461	 -1.215070	 0.001379
O	 -2.310168	 -0.871793	 -0.309793
C	 -2.026376	 0.340750	 0.341611
C	 -0.673256	 0.843270	 -0.132153
H	 -2.792215	 1.080697	 0.115987
H	 -2.013526	 0.200402	 1.421792
C	 0.486613	 -0.083066	 0.235839
H	 -0.715586	 0.970948	 -1.210718
H	 -0.508072	 1.829858	 0.297090
C	 0.031984	 -1.342024	 0.976211
H	 1.197593	 0.462969	 0.847286
H	 1.015981	 -0.372292	 -0.671332
C	 1.190447	 -2.270557	 1.338792
H	 -0.496192	 -1.054607	 1.882930
H	 -0.686225	 -1.884154	 0.364072
H	 1.908814	 -1.767515	 1.979718
H	 0.838760	 -3.153103	 1.864503
H	 1.718861	 -2.603808	 0.449842

10 7 4 8 F
