%nprocshared=4
%mem=2GB
#HF/cc-pVTZ nosymm scf=tight opt=ModRedundant

Mol

0 1
O	 -0.694481	 1.313155	 -0.204815
C	 -0.862519	 0.151932	 -0.046791
C	 -2.171428	 -0.477048	 0.339095
O	 0.085519	 -0.757083	 -0.192238
H	 -2.467997	 -1.191667	 -0.417688
H	 -2.923379	 0.287970	 0.444097
H	 -2.053854	 -1.015120	 1.270901
C	 1.392036	 -0.330828	 -0.560749
C	 1.358815	 0.969693	 -1.336274
H	 1.873028	 -1.110850	 -1.129984
H	 1.913736	 -0.206574	 0.376343
H	 2.372122	 1.296529	 -1.540822
H	 0.845417	 0.844134	 -2.279693
H	 0.860374	 1.743356	 -0.764790

10 8 4 2 F
