%nprocshared=4
%mem=2GB
#HF/cc-pVTZ nosymm scf=tight opt=ModRedundant

Mol

0 1
H	 1.651322	 -0.822465	 0.000000
O	 0.729993	 -1.034364	 0.000000
C	 0.037305	 0.100061	 0.000000
C	 0.337526	 0.942007	 1.203774
O	 -0.718456	 0.380156	 -0.864388
H	 0.102395	 0.385360	 2.101731
H	 -0.242976	 1.848742	 1.164092
H	 1.394386	 1.174259	 1.227736

4 3 2 1 F
