%nprocshared=1
%mem=2GB
#HF/6-31G* nosymm scf=tight 

Mol

0 1
H	 3.729471	 -0.928294	 -0.070608
O	 2.826016	 -1.159218	 0.122261
C	 2.077727	 -0.067559	 -0.035091
C	 0.624473	 -0.343591	 0.253101
O	 2.542965	 0.974826	 -0.363729
C	 -0.265902	 0.883932	 0.072916
H	 0.324016	 -1.163849	 -0.390541
H	 0.565024	 -0.726111	 1.268924
C	 -1.728698	 0.646073	 0.462102
H	 -0.209144	 1.219470	 -0.958188
H	 0.135059	 1.692851	 0.673903
C	 -2.049560	 0.877225	 1.941485
H	 -1.982156	 -0.380824	 0.209112
H	 -2.374321	 1.275045	 -0.149226
C	 -3.495457	 0.525153	 2.290633
H	 -1.375183	 0.279832	 2.551716
H	 -1.865691	 1.914803	 2.207953
H	 -3.699267	 0.698564	 3.342633
H	 -3.706207	 -0.519411	 2.080161
H	 -4.194739	 1.125100	 1.715043

16 12 9 6 F
7 4 6 10 F
5 3 4 7 F
1 2 3 5 F
