%nprocshared=1
%mem=2GB
#HF/6-31G* nosymm scf=tight 

Mol

0 1
O	 2.859800	 1.361155	 0.132994
C	 2.839513	 0.170671	 0.204368
C	 1.542570	 -0.618550	 0.201692
C	 4.118224	 -0.635742	 0.303120
C	 0.289025	 0.245671	 0.101786
H	 1.586804	 -1.329352	 -0.622440
H	 1.520306	 -1.226112	 1.105448
C	 -0.996318	 -0.583578	 0.101663
H	 0.341536	 0.845507	 -0.801303
H	 0.274785	 0.948724	 0.928625
C	 -2.259874	 0.272531	 0.000494
H	 -0.973847	 -1.288817	 -0.727903
H	 -1.041781	 -1.183864	 1.009219
C	 -3.549786	 -0.549746	 -0.000374
H	 -2.215837	 0.872517	 -0.906753
H	 -2.283839	 0.977325	 0.829763
C	 -4.809590	 0.315458	 -0.000369
H	 -3.560515	 -1.202009	 -0.871156
H	 -3.561123	 -1.202955	 0.869711
H	 -4.844746	 0.956611	 -0.876632
H	 -5.706986	 -0.295590	 -0.001609
H	 -4.845960	 0.954827	 0.877144
H	 4.192547	 -1.331619	 -0.527451
H	 4.970548	 0.029314	 0.294199
H	 4.126083	 -1.222754	 1.216898

9 5 8 12 F
15 11 8 12 F
1 2 3 6 F
9 5 3 6 F
