%nprocshared=4
%mem=2GB
#HF/cc-pVTZ nosymm scf=tight 
prop=(read,field)

Mol

0 1
H	 -1.835220	 1.385985	 0.000069
C	 -1.300654	 0.441155	 -0.000028
O	 -0.006742	 0.654346	 -0.000106
O	 -1.829058	 -0.612306	 0.000113
C	 0.851955	 -0.482519	 -0.000161
C	 2.277395	 0.016302	 0.000164
H	 0.638785	 -1.081153	 -0.874320
H	 0.638500	 -1.081485	 0.873704
H	 2.475678	 0.617390	 -0.878100
H	 2.958227	 -0.826504	 0.000125
H	 2.475387	 0.617083	 0.878703

@grid.dat /N
