%nprocshared=1
%mem=2GB
#HF/6-31G* nosymm scf=tight opt=ModRedundant

Mol

0 1
O	 0.625848	 1.349995	 -0.000749
C	 0.486307	 0.169203	 0.000779
C	 1.608116	 -0.841643	 0.000302
O	 -0.698257	 -0.426125	 0.001050
C	 2.990107	 -0.200498	 -0.000684
H	 1.468623	 -1.481519	 -0.865924
H	 1.469683	 -1.481289	 0.866878
H	 3.129736	 0.423364	 -0.875135
H	 3.757882	 -0.966877	 -0.001197
H	 3.130964	 0.423383	 0.873533
C	 -1.091747	 -1.107602	 1.187707
C	 -2.465249	 -1.694410	 0.939798
H	 -1.099344	 -0.406282	 2.010918
H	 -0.363471	 -1.875138	 1.411521
H	 -3.181786	 -0.913574	 0.711700
H	 -2.805176	 -2.225140	 1.823214
H	 -2.441984	 -2.390542	 0.109066

11 4 2 3 F
