%nprocshared=1
%mem=2GB
#HF/6-31G* nosymm scf=tight opt=ModRedundant

Mol

0 1
H	 -3.420663	 1.227371	 -1.044276
O	 -3.452007	 0.283848	 -0.965577
C	 -3.181085	 -0.079926	 0.364119
C	 -1.765924	 0.277073	 0.805136
H	 -3.327791	 -1.152017	 0.410903
H	 -3.905698	 0.375695	 1.036898
C	 -0.677594	 -0.417312	 -0.014550
H	 -1.637766	 1.358238	 0.744969
H	 -1.659588	 0.017670	 1.857098
C	 0.738335	 -0.034840	 0.421385
H	 -0.814977	 -0.178223	 -1.064632
H	 -0.802730	 -1.495410	 0.071702
C	 0.953588	 1.480030	 0.475423
H	 0.938945	 -0.473594	 1.395895
H	 1.460067	 -0.474637	 -0.265845
C	 2.382898	 1.913025	 0.821464
H	 0.262843	 1.915917	 1.195542
H	 0.689552	 1.903555	 -0.491390
C	 2.833626	 1.545731	 2.236506
H	 2.454153	 2.991475	 0.702474
H	 3.073824	 1.482612	 0.099268
H	 2.153628	 1.952552	 2.980306
H	 3.822639	 1.944003	 2.441617
H	 2.879579	 0.471619	 2.382576

13 10 7 11 F
