%nprocshared=4
%mem=2GB
#HF/6-31G* nosymm scf=tight opt=ModRedundant

Mol

0 1
H	 2.805627	 2.620528	 -4.242413
C	 3.117903	 2.255798	 -3.268771
C	 1.942608	 2.209738	 -2.293201
H	 3.547412	 1.268100	 -3.407753
H	 3.905120	 2.911544	 -2.906713
C	 2.350114	 1.705791	 -0.906915
H	 1.166268	 1.568303	 -2.697500
H	 1.512160	 3.205743	 -2.201658
C	 1.197702	 1.665840	 0.096887
H	 2.777700	 0.713032	 -0.992019
H	 3.128274	 2.352795	 -0.508298
C	 0.169600	 0.576866	 -0.172154
H	 1.587778	 1.483404	 1.097051
H	 0.694134	 2.628585	 0.149025
C	 -1.181045	 0.701995	 0.511084
O	 0.414819	 -0.354397	 -0.878569
C	 -2.285934	 -0.139295	 -0.145128
H	 -1.449051	 1.751551	 0.493206
H	 -1.071135	 0.403303	 1.551943
C	 -3.651768	 0.085446	 0.506485
H	 -2.346596	 0.110469	 -1.202272
H	 -2.034737	 -1.195320	 -0.088721
C	 -4.759797	 -0.746382	 -0.137905
H	 -3.908762	 1.140117	 0.445781
H	 -3.588286	 -0.154158	 1.565709
H	 -4.868882	 -0.505166	 -1.191300
H	 -4.548009	 -1.809175	 -0.062213
H	 -5.715422	 -0.564821	 0.343442

16 12 15 17 F
