%nprocshared=4
%mem=2GB
#HF/cc-pVTZ nosymm scf=tight opt=ModRedundant

Mol

0 1
H	 2.614283	 2.028610	 0.296620
O	 3.358864	 1.662087	 -0.142800
C	 3.565468	 0.338079	 0.273842
C	 2.533667	 -0.637565	 -0.272227
H	 4.548038	 0.064914	 -0.086598
H	 3.593945	 0.282242	 1.360360
C	 1.114816	 -0.402372	 0.240993
H	 2.544552	 -0.580764	 -1.356576
H	 2.850574	 -1.642962	 -0.005497
C	 0.113298	 -1.420414	 -0.302504
H	 0.796373	 0.598427	 -0.031033
H	 1.113377	 -0.446476	 1.328807
C	 0.094754	 -1.558948	 -1.825894
H	 0.313747	 -2.391489	 0.143659
H	 -0.881735	 -1.135957	 0.028350
C	 1.361217	 -2.156672	 -2.436256
H	 -0.749715	 -2.184831	 -2.100975
H	 -0.094432	 -0.585172	 -2.272127
C	 1.255746	 -2.366472	 -3.944655
H	 1.573999	 -3.109803	 -1.956952
H	 2.213397	 -1.515893	 -2.230843
C	 2.519876	 -2.959637	 -4.557862
H	 0.412602	 -3.017710	 -4.158139
H	 1.034787	 -1.416608	 -4.424235
H	 2.750207	 -3.925992	 -4.121578
H	 2.410413	 -3.097864	 -5.627450
H	 3.375462	 -2.312658	 -4.394327

14 10 7 4 F
