%nprocshared=4
%mem=2GB
#HF/cc-pVTZ nosymm scf=tight 
prop=(read,field)

Mol

0 1
H	 -2.816473	 -0.841717	 -0.064695
N	 -1.878876	 -0.711934	 0.250168
C	 -1.341434	 0.551398	 -0.220247
H	 -1.333689	 -1.468590	 -0.105134
C	 0.082175	 0.731456	 0.254689
H	 -1.357080	 0.652018	 -1.304763
H	 -1.939912	 1.357470	 0.189781
O	 0.881180	 -0.248384	 -0.336253
H	 0.440886	 1.722416	 -0.020079
H	 0.119881	 0.643526	 1.338098
C	 2.208053	 -0.234477	 0.074155
H	 2.725484	 -1.027114	 -0.446784
H	 2.688362	 0.712024	 -0.164872
H	 2.295122	 -0.403467	 1.144867

@grid.dat /N
