%nprocshared=4
%mem=2GB
#HF/cc-pVTZ nosymm scf=tight opt=ModRedundant

Mol

0 1
H	 2.134874	 -1.383112	 0.448530
O	 1.544505	 -0.819082	 -0.015570
C	 0.983707	 0.121790	 0.863225
C	 0.027642	 1.012027	 0.090274
H	 1.762801	 0.737646	 1.305381
H	 0.466411	 -0.380021	 1.676276
C	 -1.138737	 0.285728	 -0.581921
H	 0.598809	 1.538300	 -0.667560
H	 -0.354980	 1.764999	 0.774999
C	 -1.933983	 -0.631436	 0.343653
H	 -0.763151	 -0.285569	 -1.422081
H	 -1.808359	 1.035291	 -0.992333
H	 -2.789188	 -1.049673	 -0.174718
H	 -1.335629	 -1.461368	 0.700418
H	 -2.305435	 -0.092167	 1.209725

8 4 7 11 F
