%nprocshared=4
%mem=2GB
#HF/cc-pVTZ nosymm scf=tight 
prop=(read,field)

Mol

0 1
H	 -0.939703	 0.000281	 1.681465
O	 -0.046272	 -0.000157	 1.387798
C	 -0.000847	 0.000006	 -0.025371
C	 -0.685875	 -1.256559	 -0.559159
C	 -0.684563	 1.257428	 -0.558820
C	 1.479409	 -0.000732	 -0.381784
H	 -0.635100	 -1.302456	 -1.640875
H	 -1.733990	 -1.273355	 -0.275886
H	 -0.213155	 -2.142438	 -0.153922
H	 -0.633683	 1.303584	 -1.640517
H	 -1.732680	 1.275219	 -0.275611
H	 -0.210960	 2.142712	 -0.153311
H	 1.618184	 -0.000623	 -1.456507
H	 1.963175	 -0.877950	 0.028911
H	 1.964122	 0.875823	 0.029214

@grid.dat /N
