%nprocshared=1
%mem=2GB
#HF/6-31G* nosymm scf=tight 

Mol

0 1
H	 -3.135461	 -1.215070	 0.001379
O	 -2.310168	 -0.871793	 -0.309793
C	 -2.026376	 0.340750	 0.341611
C	 -0.673256	 0.843270	 -0.132153
H	 -2.792215	 1.080697	 0.115987
H	 -2.013526	 0.200402	 1.421792
C	 0.486613	 -0.083066	 0.235839
H	 -0.715586	 0.970948	 -1.210718
H	 -0.508072	 1.829858	 0.297090
C	 1.806126	 0.323821	 -0.422297
H	 0.234613	 -1.099150	 -0.049788
H	 0.612277	 -0.087505	 1.317980
C	 2.966478	 -0.598449	 -0.049909
H	 1.682258	 0.327878	 -1.503203
H	 2.053091	 1.345485	 -0.140063
H	 2.764211	 -1.622340	 -0.350951
H	 3.888023	 -0.287338	 -0.532517
H	 3.138658	 -0.598434	 1.022875

14 10 7 11 F
2 3 4 8 F
1 2 3 4 F
