%nprocshared=4
%mem=2GB
#HF/cc-pVTZ nosymm scf=tight opt=ModRedundant

Mol

0 1
O	 1.809152	 1.248774	 0.338585
C	 1.704209	 0.119472	 -0.000093
C	 0.434998	 -0.536224	 -0.480517
O	 2.715427	 -0.733672	 0.000025
C	 -0.767123	 0.396903	 -0.502936
H	 0.636671	 -0.941203	 -1.466808
H	 0.254972	 -1.393896	 0.159351
C	 -2.033176	 -0.299055	 -0.993619
H	 -0.546338	 1.248889	 -1.135904
H	 -0.928321	 0.795877	 0.492115
C	 -3.250114	 0.621103	 -1.022585
H	 -1.863991	 -0.699038	 -1.990936
H	 -2.247165	 -1.154352	 -0.356506
C	 -4.515382	 -0.074280	 -1.513452
H	 -3.037850	 1.475242	 -1.659411
H	 -3.421015	 1.019905	 -0.026638
H	 -4.387467	 -0.454431	 -2.521597
H	 -5.358962	 0.606188	 -1.521866
H	 -4.773891	 -0.913128	 -0.875690
C	 4.020999	 -0.192556	 0.000019
H	 4.182809	 0.412891	 -0.879449
H	 4.692590	 -1.035653	 0.000152
H	 4.182726	 0.413087	 0.879368

1 2 4 20 F
