%nprocshared=1
%mem=2GB
#HF/6-31G* nosymm scf=tight 

Mol

0 1
O	 -1.276010	 1.052711	 -0.768302
C	 -1.204840	 0.067374	 -0.106123
C	 -2.388195	 -0.672128	 0.458071
O	 -0.067104	 -0.527208	 0.221609
H	 -2.388023	 -1.694060	 0.097175
H	 -3.300579	 -0.174919	 0.164318
H	 -2.315377	 -0.706351	 1.539059
C	 0.172465	 -0.863782	 1.595382
C	 1.681630	 -0.909663	 1.756323
C	 -0.502199	 -2.186077	 1.925547
H	 -0.245123	 -0.077773	 2.207197
H	 2.123636	 0.045485	 1.496381
H	 1.941047	 -1.138963	 2.784650
H	 2.112599	 -1.671532	 1.115639
H	 -0.305381	 -2.457896	 2.957725
H	 -1.574314	 -2.113443	 1.794131
H	 -0.121955	 -2.975922	 1.285572

11 8 4 2 F
