%nprocshared=1
%mem=2GB
#HF/6-31G* nosymm scf=tight 

Mol

0 1
O	 1.589393	 1.743790	 0.490967
C	 0.939996	 1.446181	 1.441141
C	 -0.368203	 0.694160	 1.410421
O	 1.295092	 1.742260	 2.685079
C	 -0.823008	 0.326187	 0.001381
H	 -0.248488	 -0.190941	 2.029274
H	 -1.108253	 1.309361	 1.914974
C	 -2.149452	 -0.435131	 -0.000098
H	 -0.054037	 -0.271430	 -0.477916
H	 -0.915791	 1.230380	 -0.592029
C	 -3.368779	 0.488503	 -0.000883
H	 -2.193746	 -1.087250	 -0.871175
H	 -2.195311	 -1.087803	 0.870418
C	 -4.693822	 -0.272754	 -0.001129
H	 -3.325798	 1.139422	 -0.871284
H	 -3.326423	 1.139959	 0.869145
H	 -4.781274	 -0.907928	 -0.878124
H	 -5.538651	 0.408946	 -0.001420
H	 -4.781694	 -0.907783	 0.875984
C	 2.510153	 2.449014	 2.855607
H	 3.340132	 1.877578	 2.465577
H	 2.621562	 2.592138	 3.919082
H	 2.468423	 3.403855	 2.351579

15 11 8 12 F
1 2 3 6 F
9 5 3 6 F
1 2 4 20 F
