%nprocshared=4
%mem=2GB
#HF/6-31G* nosymm scf=tight opt=ModRedundant

Mol

0 1
H	 2.888919	 1.440352	 1.268077
O	 3.619070	 1.150872	 0.740675
C	 3.699616	 -0.251468	 0.772410
C	 2.602404	 -0.935051	 -0.036025
H	 4.668027	 -0.500096	 0.357635
H	 3.686676	 -0.610723	 1.800781
C	 1.189464	 -0.686097	 0.497352
H	 2.669210	 -0.593624	 -1.065749
H	 2.803027	 -2.005130	 -0.042923
C	 0.115918	 -1.429151	 -0.302766
H	 0.983242	 0.380422	 0.477970
H	 1.136351	 -0.996982	 1.540841
C	 -1.309753	 -1.282496	 0.241564
H	 0.142624	 -1.091542	 -1.337248
H	 0.369531	 -2.486966	 -0.322991
C	 -2.037799	 -0.007733	 -0.193645
H	 -1.890610	 -2.142323	 -0.085726
H	 -1.285946	 -1.330893	 1.329189
C	 -3.489788	 0.042957	 0.286558
H	 -2.017067	 0.064384	 -1.280144
H	 -1.513726	 0.868678	 0.179924
C	 -4.216917	 1.317354	 -0.141063
H	 -4.025645	 -0.823308	 -0.095450
H	 -3.513059	 -0.038752	 1.371301
H	 -4.239342	 1.411634	 -1.223113
H	 -5.243387	 1.322503	 0.212445
H	 -3.726170	 2.201406	 0.256408

14 10 13 16 F
