%nprocshared=4
%mem=2GB
#HF/cc-pVTZ nosymm scf=tight opt=ModRedundant

Mol

0 1
H	 0.375745	 -2.275424	 -0.783090
C	 -0.431523	 -1.565555	 -0.972441
N	 -0.537714	 -0.645117	 0.000000
O	 -1.114741	 -1.637879	 -1.944398
C	 -1.522613	 0.412524	 0.000000
H	 0.100385	 -0.704670	 0.754498
H	 -2.150256	 0.356137	 -0.880771
H	 -1.005621	 1.357208	 0.000000
H	 -2.150256	 0.356137	 0.880771

6 3 5 7 F
