%nprocshared=4
%mem=2GB
#HF/cc-pVTZ nosymm scf=tight opt=ModRedundant

Mol

0 1
H	 0.666075	 -4.667332	 -3.070464
O	 1.586163	 -4.517394	 -3.183545
C	 1.836311	 -3.148695	 -3.366197
C	 1.673083	 -2.327528	 -2.095872
H	 2.858394	 -3.078969	 -3.713277
H	 1.200692	 -2.748578	 -4.153817
C	 0.244370	 -2.280207	 -1.558853
H	 2.336188	 -2.730750	 -1.336358
H	 2.011967	 -1.315924	 -2.306140
C	 0.113298	 -1.420414	 -0.302504
H	 -0.091142	 -3.289061	 -1.342874
H	 -0.417302	 -1.888551	 -2.329620
C	 -1.311023	 -1.277304	 0.237018
H	 0.752972	 -1.827421	 0.476848
H	 0.498552	 -0.428426	 -0.521609
C	 -2.041121	 -0.006551	 -0.194127
H	 -1.888548	 -2.136293	 -0.093331
H	 -1.289731	 -1.328757	 1.323321
C	 -3.489218	 0.042606	 0.286507
H	 -2.022185	 0.066287	 -1.279394
H	 -1.518764	 0.869305	 0.178730
C	 -4.219984	 1.311773	 -0.139038
H	 -4.022855	 -0.824300	 -0.093339
H	 -3.510372	 -0.038577	 1.370031
H	 -4.244251	 1.405725	 -1.219696
H	 -5.244345	 1.313233	 0.215630
H	 -3.732090	 2.196311	 0.257073

14 10 13 16 F
