%nprocshared=4
%mem=2GB
#HF/cc-pVTZ nosymm scf=tight opt=ModRedundant

Mol

0 1
O	 1.296942	 1.142495	 0.578945
C	 1.121787	 0.124983	 0.000110
C	 -0.065498	 -0.787159	 0.172779
O	 1.969101	 -0.353489	 -0.896273
C	 -1.402931	 -0.061110	 0.165740
H	 -0.017124	 -1.529543	 -0.617162
H	 0.080924	 -1.332287	 1.099525
C	 -1.578725	 0.821387	 -1.066578
H	 -1.488501	 0.540621	 1.063592
H	 -2.205575	 -0.788406	 0.214181
C	 -2.914984	 1.555582	 -1.082693
H	 -0.769785	 1.545846	 -1.111462
H	 -1.491817	 0.212996	 -1.962983
H	 -3.017370	 2.199365	 -0.215718
H	 -3.012090	 2.173689	 -1.967675
H	 -3.744634	 0.856885	 -1.073547
C	 3.226978	 0.281687	 -1.004047
H	 3.107866	 1.319775	 -1.276836
H	 3.762124	 -0.246898	 -1.776112
H	 3.765395	 0.222432	 -0.069799

1 2 4 17 F
