%nprocshared=4
%mem=2GB
#HF/cc-pVTZ nosymm scf=tight opt=ModRedundant

Mol

0 1
H	 2.342730	 0.877684	 -1.045694
C	 2.360424	 0.000000	 -0.411793
C	 1.173749	 0.000000	 0.526870
H	 3.286567	 0.000000	 0.151574
H	 2.342730	 -0.877684	 -1.045694
O	 -0.000000	 0.000000	 -0.223739
H	 1.203779	 0.876757	 1.172538
H	 1.203779	 -0.876757	 1.172538
C	 -1.173749	 0.000000	 0.526870
C	 -2.171025	 -0.939111	 -0.115624
H	 -1.583856	 1.007804	 0.578200
H	 -0.963495	 -0.314660	 1.548277
H	 -2.394376	 -0.621606	 -1.126454
H	 -3.093943	 -0.955098	 0.452785
H	 -1.773358	 -1.945469	 -0.155351

11 9 6 3 F
