%nprocshared=4
%mem=2GB
#HF/cc-pVTZ nosymm scf=tight opt=ModRedundant

Mol

0 1
H	 -3.162190	 0.493205	 -0.000107
C	 -2.363908	 -0.234727	 0.000005
O	 -1.158738	 0.454634	 -0.000087
H	 -2.464314	 -0.863616	 -0.882153
H	 -2.464327	 -0.863359	 0.882345
C	 -0.028611	 -0.359694	 0.000037
C	 1.212847	 0.509314	 -0.000053
H	 -0.034155	 -1.007047	 -0.877198
H	 -0.034195	 -1.006836	 0.877430
C	 2.054891	 0.321939	 1.257008
H	 1.799400	 0.273622	 -0.881149
H	 0.908835	 1.545912	 -0.094886
H	 2.390438	 -0.704778	 1.358725
H	 2.934273	 0.953612	 1.230576
H	 1.494029	 0.576294	 2.150208

11 7 6 8 F
