%nprocshared=1
%mem=2GB
#HF/6-31G* nosymm scf=tight opt=ModRedundant

Mol

0 1
H	 2.591676	 2.013956	 0.335017
O	 3.341076	 1.666752	 -0.126416
C	 3.569581	 0.339145	 0.272707
C	 4.894027	 -0.221311	 -0.233711
H	 3.568484	 0.352885	 1.355058
H	 2.746455	 -0.300761	 -0.043146
C	 4.982306	 -0.328440	 -1.758047
H	 5.698846	 0.409283	 0.135051
H	 5.035794	 -1.206771	 0.206898
C	 6.301599	 -0.944512	 -2.232115
H	 4.866771	 0.660505	 -2.192794
H	 4.153161	 -0.932242	 -2.127213
C	 6.406972	 -1.153474	 -3.747230
H	 7.128657	 -0.321514	 -1.896413
H	 6.429709	 -1.907413	 -1.742106
C	 6.440458	 0.134456	 -4.574631
H	 7.312745	 -1.720527	 -3.951783
H	 5.579019	 -1.776268	 -4.082579
C	 6.652161	 -0.121900	 -6.068251
H	 7.237610	 0.777949	 -4.205070
H	 5.514740	 0.689074	 -4.441413
C	 6.679570	 1.161683	 -6.897303
H	 7.584498	 -0.663775	 -6.211805
H	 5.862000	 -0.772620	 -6.437159
H	 7.480768	 1.820252	 -6.573893
H	 6.833004	 0.947041	 -7.950404
H	 5.745664	 1.708984	 -6.804331

4 3 2 1 F
