%nprocshared=4
%mem=2GB
#HF/6-31G* nosymm scf=tight opt=ModRedundant

Mol

0 1
H	 2.591676	 2.013956	 0.335017
O	 3.341076	 1.666752	 -0.126416
C	 3.569581	 0.339145	 0.272707
C	 2.539767	 -0.640285	 -0.279495
H	 4.553106	 0.084646	 -0.100901
H	 3.608576	 0.269204	 1.359154
C	 1.161307	 -0.529671	 0.376615
H	 2.448446	 -0.477394	 -1.350239
H	 2.924928	 -1.649547	 -0.143819
C	 0.165977	 -1.561689	 -0.161042
H	 0.768831	 0.470661	 0.216417
H	 1.261933	 -0.658309	 1.454422
C	 -1.205840	 -1.550601	 0.523308
H	 0.035595	 -1.409702	 -1.230971
H	 0.599639	 -2.552944	 -0.046798
C	 -2.033278	 -0.283957	 0.287858
H	 -1.773372	 -2.406961	 0.165018
H	 -1.074741	 -1.702084	 1.593683
C	 -3.432818	 -0.363569	 0.901361
H	 -2.121136	 -0.106444	 -0.783068
H	 -1.518527	 0.581149	 0.698863
C	 -4.258594	 0.902034	 0.673307
H	 -3.960590	 -1.218460	 0.484100
H	 -3.347190	 -0.550590	 1.969806
H	 -4.389997	 1.098652	 -0.387023
H	 -5.245147	 0.813910	 1.117809
H	 -3.775034	 1.770509	 1.111809

8 4 3 2 F
