%nprocshared=4
%mem=2GB
#HF/cc-pVTZ nosymm scf=tight opt=ModRedundant

Mol

0 1
O	 -0.987265	 -1.409051	 -0.020940
C	 -0.675735	 -0.252776	 -0.047328
C	 -1.745516	 0.819791	 -0.048071
N	 0.622280	 0.144970	 -0.099307
H	 -1.676957	 1.444790	 -0.929560
H	 -2.700828	 0.322034	 -0.037605
H	 -1.665606	 1.457366	 0.823759
C	 1.664396	 -0.854993	 0.000772
C	 1.055950	 1.509037	 0.087789
H	 2.462727	 -0.615153	 -0.690869
H	 1.261798	 -1.821849	 -0.240651
H	 2.081615	 -0.891605	 1.003877
H	 1.939895	 1.686651	 -0.511152
H	 0.303967	 2.212776	 -0.225529
H	 1.309709	 1.715740	 1.125057

2 4 8 10 F
