%nprocshared=4
%mem=2GB
#HF/cc-pVTZ nosymm scf=tight opt=ModRedundant

Mol

0 1
H	 1.886857	 -0.703911	 -2.402733
C	 1.160351	 -0.899152	 -1.624691
C	 1.322304	 0.099773	 -0.484271
H	 0.173359	 -0.834055	 -2.068515
H	 1.307480	 -1.916850	 -1.281202
C	 0.308557	 -0.162619	 0.622645
H	 1.187881	 1.109724	 -0.851235
H	 2.320388	 0.033145	 -0.069147
N	 -1.069352	 -0.004081	 0.085342
H	 0.371632	 -1.172932	 0.991288
H	 0.400391	 0.548875	 1.426218
O	 -1.584901	 -0.965470	 -0.377818
O	 -1.548033	 1.079343	 0.130056

7 3 6 9 F
