%nprocshared=4
%mem=2GB
#HF/cc-pVTZ nosymm scf=tight opt=ModRedundant

Mol

0 1
H	 5.014141	 -1.225811	 0.822234
C	 4.413263	 -1.179039	 -0.078668
C	 2.934017	 -1.014745	 0.253237
H	 4.772743	 -0.346210	 -0.673132
H	 4.591094	 -2.089106	 -0.642543
C	 2.054168	 -0.955862	 -0.993507
H	 2.796467	 -0.111017	 0.835728
H	 2.612485	 -1.843702	 0.879552
C	 0.567229	 -0.797938	 -0.691912
H	 2.374814	 -0.136502	 -1.624905
H	 2.190483	 -1.868548	 -1.566400
C	 0.166485	 0.574257	 -0.177158
H	 -0.011942	 -0.961764	 -1.597168
H	 0.231022	 -1.552944	 0.012679
C	 -1.180025	 0.697761	 0.509157
O	 0.866801	 1.523992	 -0.321501
C	 -2.285431	 -0.137488	 -0.145671
H	 -1.447360	 1.745713	 0.496200
H	 -1.065514	 0.394096	 1.546399
C	 -3.646545	 0.082747	 0.508954
H	 -2.348635	 0.118247	 -1.199806
H	 -2.034895	 -1.192387	 -0.096473
C	 -4.757412	 -0.737227	 -0.138149
H	 -3.900211	 1.137405	 0.459735
H	 -3.580878	 -0.166775	 1.564416
H	 -4.867876	 -0.486707	 -1.187777
H	 -4.549650	 -1.800049	 -0.072540
H	 -5.709585	 -0.556397	 0.346597

16 12 15 17 F
