%nprocshared=4
%mem=2GB
#HF/cc-pVTZ nosymm scf=tight opt=ModRedundant

Mol

0 1
H	 -0.000342	 -0.223902	 -3.352295
C	 -0.027146	 0.371068	 -2.446756
C	 0.024493	 -0.518541	 -1.216015
H	 -0.932586	 0.964979	 -2.449855
H	 0.819708	 1.049865	 -2.473332
N	 -0.042516	 0.263377	 0.000000
H	 -0.822211	 -1.197105	 -1.225584
H	 0.921114	 -1.142847	 -1.255206
C	 0.024493	 -0.518541	 1.216015
H	 0.682568	 0.950412	 0.000000
C	 -0.525568	 0.257284	 2.401057
H	 -0.564166	 -1.418193	 1.069200
H	 1.042905	 -0.848538	 1.437740
H	 -1.551104	 0.553714	 2.219488
H	 -0.493427	 -0.343975	 3.302257
H	 0.056292	 1.155529	 2.583344

12 9 6 3 F
