%nprocshared=4
%mem=2GB
#HF/cc-pVTZ nosymm scf=tight opt=ModRedundant

Mol

0 1
H	 -6.890803	 -0.239161	 -2.678238
C	 -5.834086	 0.029383	 -2.812844
C	 -4.960482	 -0.214426	 -1.612317
O	 -5.465236	 0.482288	 -3.840528
C	 -4.042740	 0.970372	 -1.296598
H	 -5.593483	 -0.464226	 -0.770745
H	 -4.352023	 -1.086051	 -1.843292
C	 -4.789956	 2.214817	 -0.822038
H	 -3.335139	 0.662367	 -0.534513
H	 -3.451902	 1.212388	 -2.176673
C	 -5.641798	 2.853761	 -1.915610
H	 -4.070738	 2.941230	 -0.453042
H	 -5.423493	 1.963276	 0.024593
C	 -6.900381	 3.527547	 -1.372262
H	 -5.037082	 3.575553	 -2.455684
H	 -5.927719	 2.092630	 -2.638262
C	 -7.827821	 4.111512	 -2.439380
H	 -6.614724	 4.314215	 -0.677756
H	 -7.459838	 2.800038	 -0.790848
C	 -7.244121	 5.287623	 -3.218572
H	 -8.743922	 4.435874	 -1.955707
H	 -8.114795	 3.326049	 -3.133643
H	 -6.941812	 6.086551	 -2.549005
H	 -6.377675	 4.999038	 -3.801388
H	 -7.976863	 5.694192	 -3.906144

12 8 11 14 F
