%nprocshared=4
%mem=2GB
#HF/cc-pVTZ nosymm scf=tight opt=ModRedundant

Mol

0 1
H	 0.126529	 -2.507499	 0.442549
C	 -0.740999	 -1.853747	 0.549558
N	 -0.537714	 -0.645117	 0.000000
O	 -1.733540	 -2.214118	 1.098843
C	 -1.522613	 0.412524	 0.000000
H	 0.340502	 -0.481068	 -0.426391
H	 -2.150256	 0.356137	 -0.880771
H	 -1.005621	 1.357208	 0.000000
H	 -2.150256	 0.356137	 0.880771

6 3 5 7 F
