%nprocshared=1
%mem=2GB
#HF/6-31G* nosymm scf=tight 

Mol

0 1
H	 3.729471	 -0.928294	 -0.070608
O	 2.826016	 -1.159218	 0.122261
C	 2.077727	 -0.067559	 -0.035091
C	 0.624473	 -0.343591	 0.253101
O	 2.542965	 0.974826	 -0.363729
C	 -0.265902	 0.883932	 0.072916
H	 0.324016	 -1.163849	 -0.390541
H	 0.565024	 -0.726111	 1.268924
C	 -1.728698	 0.646073	 0.462102
H	 -0.209144	 1.219470	 -0.958188
H	 0.135059	 1.692851	 0.673903
C	 -2.757724	 1.147282	 -0.555174
H	 -1.910015	 1.143672	 1.411987
H	 -1.888569	 -0.415933	 0.643046
C	 -4.196371	 0.977455	 -0.067390
H	 -2.569910	 2.198065	 -0.766424
H	 -2.641171	 0.619712	 -1.498290
H	 -4.906683	 1.337682	 -0.804957
H	 -4.365853	 1.529117	 0.852813
H	 -4.423232	 -0.066915	 0.127705

16 12 9 6 F
7 4 6 10 F
5 3 4 7 F
1 2 3 5 F
