%nprocshared=4
%mem=2GB
#HF/cc-pVTZ nosymm scf=tight opt=ModRedundant

Mol

0 1
O	 -2.071633	 -1.227563	 -0.223463
C	 -1.652164	 -0.152425	 0.058082
C	 -0.327811	 0.006324	 0.778296
C	 -2.402515	 1.108629	 -0.298924
C	 0.424293	 -1.328018	 0.851065
H	 0.285868	 0.747454	 0.277047
H	 -0.539613	 0.359595	 1.779383
C	 1.756687	 -1.213932	 1.585871
H	 0.601135	 -1.705853	 -0.152759
H	 -0.206989	 -2.055581	 1.349562
C	 2.502416	 -2.541216	 1.671708
H	 2.382306	 -0.479643	 1.085927
H	 1.579644	 -0.833543	 2.587619
H	 2.725098	 -2.930375	 0.683780
H	 1.913929	 -3.286952	 2.195091
H	 3.440970	 -2.428550	 2.201635
H	 -3.240910	 0.874416	 -0.936711
H	 -1.747554	 1.818823	 -0.790984
H	 -2.760419	 1.579708	 0.610998

5 3 2 4 F
