%nprocshared=4
%mem=2GB
#HF/cc-pVTZ nosymm scf=tight opt=ModRedundant

Mol

0 1
O	 -1.627117	 1.465170	 1.722059
C	 -0.846966	 0.612872	 1.465048
C	 0.022084	 -0.085475	 2.472776
O	 -0.637375	 0.157174	 0.243149
H	 1.063896	 0.062775	 2.219069
H	 -0.179423	 0.305987	 3.456540
H	 -0.174154	 -1.149618	 2.447070
C	 0.162530	 -1.009518	 0.097799
C	 1.587210	 -0.664190	 0.477086
H	 0.096803	 -1.356267	 -0.924704
H	 -0.233803	 -1.785900	 0.736810
C	 1.721937	 0.054830	 1.816721
H	 1.989283	 -0.037201	 -0.314090
H	 2.179367	 -1.574206	 0.484768
C	 3.166733	 0.411056	 2.150312
H	 1.122066	 0.960838	 1.796677
H	 1.311784	 -0.568996	 2.602507
H	 3.233107	 0.923372	 3.102947
H	 3.596342	 1.060832	 1.394918
H	 3.784949	 -0.478480	 2.209921

1 2 4 8 F
