%nprocshared=1
%mem=2GB
#HF/6-31G* nosymm scf=tight 

Mol

0 1
H	 -3.261111	 -0.295142	 1.469456
C	 -3.306842	 -0.277400	 0.373456
C	 -2.660244	 0.921717	 -0.272021
O	 -3.838538	 -1.161155	 -0.216482
C	 -1.551638	 1.531687	 0.596991
H	 -2.286453	 0.626216	 -1.245504
H	 -3.443311	 1.663165	 -0.426022
C	 -0.334405	 0.618459	 0.763298
H	 -1.239929	 2.470098	 0.148096
H	 -1.957413	 1.784409	 1.575375
C	 0.766840	 1.243672	 1.621892
H	 0.064982	 0.375333	 -0.219162
H	 -0.640477	 -0.327532	 1.205971
C	 1.989225	 0.334309	 1.772834
H	 1.061079	 2.192673	 1.180812
H	 0.367264	 1.474917	 2.608426
C	 3.085425	 0.883858	 2.692841
H	 2.412811	 0.134188	 0.789868
H	 1.661556	 -0.627089	 2.162783
C	 3.777303	 2.145503	 2.174019
H	 3.834973	 0.109127	 2.833968
H	 2.664654	 1.080813	 3.676753
H	 4.193976	 1.982714	 1.183487
H	 3.095225	 2.986862	 2.111906
H	 4.591892	 2.435554	 2.830761

6 3 5 8 F
3 5 8 12 F
12 8 11 14 F
8 11 14 18 F
20 17 14 18 F
