%nprocshared=4
%mem=2GB
#HF/6-31G* nosymm scf=tight opt=ModRedundant

Mol

0 1
O	 1.807713	 1.250445	 -0.338081
C	 1.705091	 0.115954	 0.001797
C	 0.436059	 -0.546325	 0.480138
O	 2.721346	 -0.737485	 -0.000216
C	 -0.766969	 0.391741	 0.500140
H	 0.255735	 -1.404299	 -0.161796
H	 0.634605	 -0.953157	 1.467957
C	 -2.038210	 -0.304995	 0.987548
H	 -0.924648	 0.792313	 -0.496288
H	 -0.545916	 1.243314	 1.135961
C	 -3.255235	 0.621318	 1.013101
H	 -2.252498	 -1.160086	 0.348098
H	 -1.872936	 -0.706557	 1.986204
C	 -4.524841	 -0.075079	 1.501345
H	 -3.423238	 1.021301	 0.015640
H	 -3.043046	 1.475551	 1.652162
H	 -4.783024	 -0.914114	 0.861364
H	 -5.369269	 0.607082	 1.508410
H	 -4.399627	 -0.456682	 2.510806
C	 4.024888	 -0.184556	 -0.001949
H	 4.179030	 0.422472	 -0.882452
H	 4.701782	 -1.024608	 -0.003642
H	 4.181981	 0.421185	 0.878906

1 2 4 20 F
